@RELATION fusion

@ATTRIBUTE f0 NUMERIC
@ATTRIBUTE f1 NUMERIC
@ATTRIBUTE f2 NUMERIC
@ATTRIBUTE f3 NUMERIC
@ATTRIBUTE f4 NUMERIC
@ATTRIBUTE f5 NUMERIC
@ATTRIBUTE f6 NUMERIC
@ATTRIBUTE f7 NUMERIC
@ATTRIBUTE f8 NUMERIC
@ATTRIBUTE f9 NUMERIC
@ATTRIBUTE f10 NUMERIC
@ATTRIBUTE f11 NUMERIC
@ATTRIBUTE f12 NUMERIC
@ATTRIBUTE f13 NUMERIC
@ATTRIBUTE f14 NUMERIC
@ATTRIBUTE f15 NUMERIC
@ATTRIBUTE f16 NUMERIC
@ATTRIBUTE f17 NUMERIC
@ATTRIBUTE f18 NUMERIC
@ATTRIBUTE f19 NUMERIC
@ATTRIBUTE f20 NUMERIC
@ATTRIBUTE f21 NUMERIC
@ATTRIBUTE class {aluminium_foil,brown_bread,corduroy,cotton,cracker,linen,orange_peel,sandpaper,sponge,styrofoam}

@DATA
20.233395313701376,2.6815210946510906,0.46069190323877707,0.13668818197674876,0.9764023585520585,0.018702555894630653,20.233395313701457,0.4606919032387788,6.455601805285352,8.80606816263214,3.063916490732514,0.12965686274509805,0.0108642578125,0.0280609130859375,0.0198974609375,0.115875244140625,0.4400177001953125,0.1616973876953125,0.046142578125,0.0307769775390625,0.115203857421875,0.031463623046875,aluminium_foil
13.409122407847974,2.0649402423346865,0.5171152434796695,0.10610926999549672,0.9804701324366553,0.01128906598448191,13.409122407847942,0.5171152434796678,6.379992335495481,8.418802915510593,2.7389085284688606,0.06061580882352941,0.00848388671875,0.0218048095703125,0.0193328857421875,0.1345367431640625,0.430328369140625,0.19329833984375,0.0527496337890625,0.033294677734375,0.0747528076171875,0.0314178466796875,aluminium_foil
15.659331401984758,2.0841345726403366,0.5307950483837515,0.1215757941589211,0.9784497996673707,0.014810634753859218,15.659331401984812,0.5307950483837526,6.259048636262605,8.232351552955679,2.707313451684937,0.0875,0.011810302734375,0.0283203125,0.0250244140625,0.1309356689453125,0.3924102783203125,0.1711883544921875,0.0569610595703125,0.03662109375,0.10498046875,0.041748046875,aluminium_foil
32.26520092933004,2.71446082936852,0.5302393928355444,0.1575642525073624,0.9203653955876304,0.02490822555080606,32.26520092933006,0.5302393928355488,5.491898785309198,7.525837665782094,2.903728830518715,0.10545343137254902,0.0182037353515625,0.038177490234375,0.042236328125,0.152099609375,0.295867919921875,0.1759796142578125,0.0748443603515625,0.05816650390625,0.08673095703125,0.0576934814453125,aluminium_foil
27.13348001670029,2.6102943729575294,0.4976659331339921,0.13778987836789217,0.926783839695724,0.019050987305479116,27.1334800167003,0.49766593313399393,5.61943893143205,7.775251422625027,2.9198786999634763,0.08000919117647058,0.0228271484375,0.0450592041015625,0.04925537109375,0.15631103515625,0.284637451171875,0.1623687744140625,0.0778350830078125,0.0601959228515625,0.0666656494140625,0.0748443603515625,aluminium_foil
29.198007692353986,2.948562947544219,0.4385251416081858,0.09197543481401899,0.9153530229440419,0.008501041206260768,29.198007692353897,0.43852514160818323,5.963270310402908,8.480433377193195,3.1214140013451415,0.03235294117647059,0.0242767333984375,0.0455322265625,0.05157470703125,0.1525726318359375,0.310638427734375,0.1574249267578125,0.075164794921875,0.0572052001953125,0.058074951171875,0.067535400390625,aluminium_foil
15.928005754998063,2.3223806648885095,0.46911098204127544,0.09512441077971644,0.9773687506183548,0.009061646135103133,15.928005754998075,0.46911098204127427,6.5638203606839856,8.845489464820629,2.8829996633295485,0.0780484068627451,0.0093536376953125,0.0215606689453125,0.021087646484375,0.1321563720703125,0.45330810546875,0.1798858642578125,0.0482177734375,0.026702880859375,0.0799102783203125,0.0278167724609375,aluminium_foil
17.608701160611314,2.5935041810842026,0.4388278929311833,0.08958793689641723,0.9772602091882587,0.008041991649376343,17.608701160611297,0.4388278929311838,6.610000896781621,9.04103815511862,3.0382429974727727,0.05853247549019608,0.0079498291015625,0.020599365234375,0.022430419921875,0.13433837890625,0.473114013671875,0.165435791015625,0.047515869140625,0.029266357421875,0.07177734375,0.0275726318359375,aluminium_foil
12.300937575091332,1.8775148830978563,0.5424982135946457,0.11834057187691346,0.980027241473844,0.01403750166827219,12.30093757509131,0.5424982135946455,6.212884534984399,8.092215336551225,2.608364654318423,0.05822610294117647,0.0135650634765625,0.0287017822265625,0.0275726318359375,0.1398773193359375,0.3856201171875,0.17572021484375,0.0638885498046875,0.0401458740234375,0.0760040283203125,0.0489044189453125,aluminium_foil
70.89726679642433,5.154318711553249,0.3501241131555911,0.09043649547741232,0.920956148662719,0.008193940649075335,70.89726679642445,0.3501241131555924,6.60002044060001,9.682675665687658,3.8555178205436578,0.07630208333333334,0.0261688232421875,0.05316162109375,0.0402679443359375,0.1269378662109375,0.344085693359375,0.1391448974609375,0.0588836669921875,0.0574951171875,0.092254638671875,0.0615997314453125,aluminium_foil
51.449025960567894,4.177077581338913,0.38582142690066845,0.08061999297309304,0.9266838356292605,0.006525240125038801,51.449025960568044,0.38582142690066906,6.464890898426699,9.315184572694752,3.5746601064653754,0.03895526960784314,0.0233154296875,0.046417236328125,0.0473175048828125,0.1502685546875,0.317840576171875,0.1599578857421875,0.06829833984375,0.05816650390625,0.070343017578125,0.058074951171875,aluminium_foil
41.02466841178858,3.6673570111255245,0.4008075310809462,0.08141149831508931,0.9352375908990902,0.006654380059754447,41.02466841178873,0.4008075310809464,6.419549108015415,9.142931573790143,3.4024369020450194,0.05084252450980392,0.0251312255859375,0.04925537109375,0.0473175048828125,0.138153076171875,0.32086181640625,0.1593170166015625,0.068939208984375,0.0547027587890625,0.072235107421875,0.0640869140625,aluminium_foil
52.38277202578314,4.043667114210869,0.384699117388292,0.07391271991739455,0.907517977470998,0.005496816857399686,52.38277202578335,0.384699117388294,6.3277799707080264,9.204264756320294,3.4969378903886374,0.027022058823529413,0.027740478515625,0.05328369140625,0.05389404296875,0.1485443115234375,0.300018310546875,0.1497650146484375,0.0707244873046875,0.0656280517578125,0.0609588623046875,0.0694427490234375,aluminium_foil
39.000315954200275,3.5495628484236885,0.3830981061740131,0.07734583636991846,0.906305678976817,0.0060128498817481595,39.0003159542003,0.383098106174013,6.151374682188107,8.939489715247296,3.363903010299632,0.02997855392156863,0.0288848876953125,0.0563507080078125,0.059112548828125,0.150146484375,0.2844696044921875,0.1477508544921875,0.0757904052734375,0.064544677734375,0.0583648681640625,0.0745849609375,aluminium_foil
40.574114538278614,3.674408175341216,0.3802031443654059,0.0725513769340784,0.9110530913984102,0.005295740371346306,40.574114538278536,0.3802031443654066,6.28681292239802,9.136763305803674,3.4111462095177725,0.028002450980392158,0.0282440185546875,0.0538177490234375,0.0549163818359375,0.150634765625,0.296142578125,0.1531524658203125,0.07318115234375,0.0617523193359375,0.0562591552734375,0.0718994140625,aluminium_foil
54.93903677371668,4.53846187463956,0.33896757593088045,0.06521007554020244,0.9209533362544174,0.0042718940976500894,54.939036773716836,0.33896757593088167,6.586850400506551,9.659010856962206,3.7121999514038624,0.03397671568627451,0.024932861328125,0.04833984375,0.0485076904296875,0.1543731689453125,0.3270263671875,0.1532745361328125,0.0671234130859375,0.0579071044921875,0.0589447021484375,0.0595703125,aluminium_foil
72.73583219194526,5.203579692906571,0.3511881878817097,0.09036524269545983,0.9205335827053298,0.008182764705590337,72.7358321919454,0.3511881878817114,6.5303322029632325,9.61107690386362,3.8647879726495824,0.06948529411764706,0.0258026123046875,0.048095703125,0.0410003662109375,0.13470458984375,0.3403778076171875,0.1461639404296875,0.0564727783203125,0.0562744140625,0.0898895263671875,0.06121826171875,aluminium_foil
38.059636663182346,3.4922937542051153,0.4172931320998207,0.09052272552331429,0.9382930577570708,0.008222830552868016,38.059636663182424,0.4172931320998212,6.301100711501411,8.934550560621501,3.3404623068659673,0.04001225490196078,0.0238800048828125,0.043670654296875,0.046844482421875,0.150238037109375,0.323883056640625,0.159332275390625,0.0694732666015625,0.055023193359375,0.0634002685546875,0.0642547607421875,aluminium_foil
108.20868459546756,6.543640772178942,0.29739940832768047,0.07695465551750048,0.8732791034824704,0.005936925071889182,108.20868459546806,0.29739940832768214,6.657893142600014,10.081406633937751,4.173823374694097,0.06729473039215686,0.0348663330078125,0.0640106201171875,0.048370361328125,0.1303558349609375,0.29425048828125,0.1320648193359375,0.0605316162109375,0.068359375,0.0885772705078125,0.07861328125,aluminium_foil
83.3079515991441,5.610977809015754,0.31736796876104717,0.06738030376786855,0.8854654892847612,0.004563286514984157,83.30795159914453,0.3173679687610497,6.57626143992377,9.847599953412603,3.975250145829457,0.029794730392156864,0.0311279296875,0.0596466064453125,0.0557098388671875,0.146942138671875,0.28192138671875,0.13958740234375,0.06671142578125,0.0711822509765625,0.0714263916015625,0.07574462890625,aluminium_foil
48.066633656526186,3.9879782715782506,0.37254042004539195,0.07472664073838246,0.9177288233899381,0.005609412858707344,48.06663365652633,0.3725404200453921,6.327773880471783,9.186794855379693,3.5088162581729554,0.0390625,0.02899169921875,0.055816650390625,0.0554656982421875,0.14117431640625,0.295166015625,0.1516265869140625,0.0714111328125,0.0623321533203125,0.066741943359375,0.0712738037109375,aluminium_foil
61.13302229010442,4.400038672025172,0.37788436920257235,0.0848637347603803,0.8944719975253291,0.007242349574926549,61.133022290104755,0.3778843692025757,6.193455737146524,9.087706131926522,3.6051798174664893,0.035431985294117646,0.0298309326171875,0.056396484375,0.0582733154296875,0.1507110595703125,0.2767791748046875,0.1434783935546875,0.0714569091796875,0.0697479248046875,0.0665130615234375,0.076812744140625,aluminium_foil
49.13684484332935,4.116312506007307,0.34098072505250066,0.06393914741477198,0.8954231166086839,0.004112742087066298,49.136844843329484,0.3409807250525021,6.29656693415428,9.333051603100717,3.5596652708082273,0.0234375,0.031036376953125,0.05908203125,0.0594482421875,0.1483306884765625,0.28826904296875,0.14251708984375,0.0698699951171875,0.066009521484375,0.0575408935546875,0.0778961181640625,aluminium_foil
50.93424704440589,4.358134972126116,0.32126443357606166,0.056843103904037656,0.8895783519602964,0.0032527134205054273,50.93424704440599,0.32126443357606266,6.420585449612934,9.588338007810275,3.6523518613635453,0.01830575980392157,0.03363037109375,0.05828857421875,0.0607757568359375,0.148681640625,0.285400390625,0.1433563232421875,0.0712432861328125,0.0660400390625,0.0540313720703125,0.07855224609375,aluminium_foil
70.85773273800929,5.183663660010572,0.3146604209094989,0.05984287426919416,0.8912574781627578,0.0035965708467572974,70.85773273800942,0.31466042090950014,6.587969161502638,9.865668618009556,3.881999938165818,0.03521752450980392,0.0315704345703125,0.05755615234375,0.0570220947265625,0.1503143310546875,0.2857513427734375,0.14178466796875,0.06573486328125,0.0678863525390625,0.069732666015625,0.0726470947265625,aluminium_foil
111.63719382268825,6.702639354455009,0.28576514563547484,0.06025736369636997,0.8640375246099905,0.0036480018515586965,111.63719382268835,0.28576514563547584,6.650784757787767,10.150099902807952,4.209390481996736,0.03172487745098039,0.0330963134765625,0.0609130859375,0.052459716796875,0.13885498046875,0.30328369140625,0.1346282958984375,0.0605316162109375,0.06646728515625,0.072174072265625,0.0775909423828125,aluminium_foil
49.528081116637786,4.095618842512498,0.3737080590332774,0.08300702248722222,0.8984310902692216,0.006920315605752329,49.52808111663783,0.37370805903327853,6.284462872797475,9.20382285619562,3.5515902847317657,0.04373468137254902,0.0305633544921875,0.0554351806640625,0.057098388671875,0.1483917236328125,0.2819366455078125,0.1479949951171875,0.07537841796875,0.0651397705078125,0.0603790283203125,0.0776824951171875,aluminium_foil
128.3586425743702,7.316883725610342,0.26797740862117775,0.06718366233946443,0.8485740848336186,0.004526825547740085,128.35864257437044,0.267977408621178,6.716653223775338,10.32320260309453,4.330393587039829,0.05943627450980392,0.039093017578125,0.0672454833984375,0.0469512939453125,0.13067626953125,0.2949066162109375,0.1272735595703125,0.0580596923828125,0.069000244140625,0.080352783203125,0.0864410400390625,aluminium_foil
89.83746301001973,5.86131113934543,0.305304639741676,0.06516033909597346,0.8778794323189727,0.0042644515801061435,89.83746301002017,0.3053046397416782,6.610562258277662,9.968357354092612,4.038153358331975,0.03524816176470588,0.0322418212890625,0.0594329833984375,0.055755615234375,0.1498870849609375,0.2803192138671875,0.1367950439453125,0.0662689208984375,0.0691680908203125,0.0711822509765625,0.078948974609375,aluminium_foil
59.87502260248425,4.54606492995482,0.3381939803726726,0.06627785155822749,0.8953231318643254,0.0044148953203376595,59.87502260248461,0.3381939803726745,6.357544982553943,9.418801904591199,3.6825024072254617,0.029947916666666668,0.0322723388671875,0.056732177734375,0.05963134765625,0.14459228515625,0.28741455078125,0.1451416015625,0.0702667236328125,0.064453125,0.0635833740234375,0.0759124755859375,aluminium_foil
79.23618896578198,5.416323829776986,0.3122037467844412,0.06410627540973882,0.8761988737365451,0.004134024793926108,79.23618896578239,0.3122037467844436,6.461823769736503,9.735998202879717,3.9197006474991882,0.026026348039215687,0.0330657958984375,0.0592498779296875,0.0579833984375,0.1513519287109375,0.282012939453125,0.1382598876953125,0.068603515625,0.069427490234375,0.06060791015625,0.079437255859375,aluminium_foil
56.489798424884306,4.371542886149552,0.34097007006169855,0.06742751214671629,0.8859404464416102,0.004571033411612097,56.489798424884654,0.3409700700617013,6.255927449846405,9.304002670785737,3.624899304727808,0.02501531862745098,0.03106689453125,0.0579833984375,0.0594482421875,0.1487274169921875,0.2880096435546875,0.14031982421875,0.06988525390625,0.0681610107421875,0.06011962890625,0.0762786865234375,aluminium_foil
57.40025953058894,4.536526531262014,0.32117013754600754,0.061597007061639994,0.8834667324362645,0.0038195777460070836,57.40025953058918,0.32117013754601,6.312967013835303,9.464565536688433,3.687893508440446,0.019684436274509803,0.033905029296875,0.05987548828125,0.0626373291015625,0.1477813720703125,0.2807464599609375,0.14013671875,0.07110595703125,0.0664825439453125,0.05804443359375,0.07928466796875,aluminium_foil
81.66336871635895,5.580962400278732,0.30101247009168136,0.058096926377734344,0.8729808633120669,0.0033957823854860692,81.66336871635907,0.30101247009168125,6.551908338949007,9.89972217562413,3.971280132832904,0.021629901960784313,0.033355712890625,0.0585174560546875,0.0596923828125,0.1479949951171875,0.283782958984375,0.141357421875,0.0704193115234375,0.0661773681640625,0.0614013671875,0.077301025390625,aluminium_foil
129.2782854851495,7.3858382893598336,0.262029742060463,0.05418001518562751,0.844693052142279,0.0029494399434648066,129.27828548514992,0.262029742060464,6.73741217289284,10.38907977313756,4.3462381497679035,0.029947916666666668,0.037384033203125,0.06396484375,0.0552215576171875,0.135101318359375,0.29193115234375,0.1312255859375,0.0609588623046875,0.070648193359375,0.0712432861328125,0.0823211669921875,aluminium_foil
58.45827198373213,4.503239724505011,0.35495788207904905,0.080490098417321,0.882434655438346,0.006508717948510904,58.4582719837322,0.3549578820790502,6.276175499161978,9.284684972028504,3.670717699318918,0.0453125,0.031829833984375,0.0552520751953125,0.0588836669921875,0.1484527587890625,0.28436279296875,0.143341064453125,0.0711517333984375,0.0667724609375,0.059814453125,0.08013916015625,aluminium_foil
138.45502308306848,7.855417132232761,0.23172141515021705,0.04986710119566898,0.8243989945077103,0.002497109105756421,138.45502308306897,0.23172141515021816,6.792899010072657,10.599496080754228,4.447598077444466,0.03958333333333333,0.040985107421875,0.0676727294921875,0.054168701171875,0.1379852294921875,0.2821044921875,0.126678466796875,0.06170654296875,0.07208251953125,0.0689697265625,0.087646484375,aluminium_foil
99.35631155985632,6.331137227869071,0.2765324638356366,0.05596709075786091,0.85634957151948,0.0031495492210578645,99.35631155985678,0.276532463835638,6.645627220008573,10.162307842794107,4.148134933801783,0.02731311274509804,0.0344085693359375,0.0595703125,0.060638427734375,0.1564178466796875,0.2712860107421875,0.137176513671875,0.0674285888671875,0.06951904296875,0.0629730224609375,0.0805816650390625,aluminium_foil
67.35205418288604,4.91619522839773,0.3172673047371827,0.06269496356340921,0.879010993160716,0.003951051426130902,67.35205418288638,0.317267304737185,6.38334670641545,9.560064251910184,3.786567134092305,0.02386642156862745,0.033416748046875,0.0577545166015625,0.0595855712890625,0.1505584716796875,0.28033447265625,0.1423492431640625,0.071685791015625,0.0656280517578125,0.0600128173828125,0.07867431640625,aluminium_foil
84.38173112504792,5.635711925701646,0.30236064724091916,0.06019089498628977,0.8649562034686831,0.0036462092530111104,84.38173112504803,0.30236064724092016,6.492559900635063,9.841809058209998,3.9742066302697303,0.023575367647058823,0.0330810546875,0.058380126953125,0.0614166259765625,0.1561737060546875,0.2706451416015625,0.141510009765625,0.0709228515625,0.068695068359375,0.060638427734375,0.0785369873046875,aluminium_foil
58.76301530661245,4.612175064878886,0.3101804590044423,0.055977032342272914,0.8720257502002916,0.0031515658663375666,58.763015306612836,0.31018045900444347,6.3532513844441025,9.565943158900092,3.707767470291645,0.013985906862745099,0.0327911376953125,0.057769775390625,0.06256103515625,0.1551666259765625,0.27911376953125,0.141510009765625,0.0708160400390625,0.0662078857421875,0.055511474609375,0.07855224609375,aluminium_foil
59.79615172049165,4.651969915417146,0.3117918121792151,0.05874626420684351,0.8742443029602865,0.0034747152960825562,59.79615172049211,0.31179181217921714,6.319421905804235,9.51858298170399,3.718718842399179,0.014950980392156863,0.035003662109375,0.0579986572265625,0.0621490478515625,0.1542510986328125,0.2740936279296875,0.1420440673828125,0.073577880859375,0.06561279296875,0.0555267333984375,0.079742431640625,aluminium_foil
91.21086493175667,6.126640024269494,0.2644391295926203,0.04775391166650954,0.853865237206145,0.002293680866624483,91.21086493175699,0.2644391295926224,6.653818115787461,10.21243039563214,4.113702645750786,0.018489583333333334,0.036041259765625,0.0608367919921875,0.0602569580078125,0.1525726318359375,0.274993896484375,0.139801025390625,0.070770263671875,0.0670623779296875,0.0581817626953125,0.0794830322265625,aluminium_foil
140.9217250426509,7.9541598934303686,0.24020081726586626,0.06473806394769474,0.8229178394720473,0.004202714017885101,140.92172504265184,0.24020081726586862,6.757785268035825,10.550826215552352,4.462391250340897,0.05863970588235294,0.0424346923828125,0.0716552734375,0.0523223876953125,0.13134765625,0.2703704833984375,0.122344970703125,0.0608367919921875,0.0751495361328125,0.0829315185546875,0.090606689453125,aluminium_foil
67.97123568759586,4.989901765546902,0.3227369679301605,0.06693831375537708,0.8715299261607738,0.0045054781297601005,67.9712356875961,0.32273696793016193,6.405989866617071,9.605261056072958,3.8164405852002163,0.030637254901960783,0.0322418212890625,0.055419921875,0.062408447265625,0.1538848876953125,0.2805023193359375,0.1439361572265625,0.0734100341796875,0.0647430419921875,0.05645751953125,0.076995849609375,aluminium_foil
151.9505791792812,8.484473054233906,0.20279962546083075,0.03881419758701268,0.8029586831801456,0.0015146251495189043,151.950579179282,0.2027996254608322,6.844935789101608,10.804918275357421,4.557146349132847,0.02386642156862745,0.0414886474609375,0.07000732421875,0.0598297119140625,0.1423187255859375,0.2737884521484375,0.12451171875,0.0627899169921875,0.0725860595703125,0.06304931640625,0.089630126953125,aluminium_foil
99.59259344362684,6.161610198000766,0.3016333411650038,0.07422548431365274,0.8377009917813023,0.005538468922735396,99.59259344362744,0.3016333411650067,6.40192626982005,9.754430433220353,4.086592257431636,0.04352022058823529,0.033233642578125,0.054443359375,0.06317138671875,0.1608734130859375,0.2642059326171875,0.1361846923828125,0.0698089599609375,0.070281982421875,0.067962646484375,0.079833984375,aluminium_foil
73.07939722702747,5.018333543588983,0.32238880849966073,0.0647030271175652,0.8645737944050426,0.0042095453913400666,73.07939722702807,0.32238880849966345,6.31863475679107,9.462714727752036,3.7878424074916675,0.02032781862745098,0.0310821533203125,0.056365966796875,0.060821533203125,0.1561126708984375,0.2793731689453125,0.14337158203125,0.072998046875,0.064239501953125,0.05731201171875,0.0783233642578125,aluminium_foil
91.50618118632168,5.950923683198725,0.29213541484886696,0.058893591087028345,0.8663159891710425,0.003491879357156488,91.50618118632255,0.29213541484887073,6.534484933367181,9.925714509889113,4.046634302811109,0.022824754901960783,0.030487060546875,0.052642822265625,0.0615997314453125,0.16583251953125,0.28192138671875,0.1402587890625,0.06964111328125,0.0650482177734375,0.0572967529296875,0.0752716064453125,aluminium_foil
65.19268552059259,4.787889768959028,0.3172564986762037,0.060625510620105585,0.8648332901006994,0.003698568680371138,65.19268552059305,0.3172564986762072,6.310483440589648,9.492399686715272,3.7375252131075225,0.018627450980392157,0.02886962890625,0.0499420166015625,0.0638885498046875,0.1722412109375,0.2817535400390625,0.1427154541015625,0.07269287109375,0.06396484375,0.052001953125,0.071929931640625,aluminium_foil
62.384855914792,4.756218431612837,0.31131555519773335,0.0579908554870346,0.8729930289673465,0.00338535161768437,62.38485591479238,0.31131555519773735,6.348562876067124,9.553254337931698,3.744953456561256,0.01562475970780469,0.0313720703125,0.052520751953125,0.0609588623046875,0.1651611328125,0.283721923828125,0.145477294921875,0.0725860595703125,0.061920166015625,0.0530853271484375,0.0731964111328125,aluminium_foil
101.93475149281488,6.40334211901671,0.26903889455625696,0.055557889110371794,0.8311525208339445,0.003106341181931778,101.93475149281525,0.26903889455625907,6.529175822888145,10.058491652030627,4.154850250273858,0.02225796568627451,0.035858154296875,0.057952880859375,0.064361572265625,0.1582794189453125,0.2654266357421875,0.136749267578125,0.0719757080078125,0.0701446533203125,0.0587921142578125,0.0804595947265625,aluminium_foil
149.20731028931112,8.56785349985579,0.19495737841199717,0.04305761808299492,0.7937205206672795,0.0018611957362489027,149.20731028931175,0.19495737841199864,6.834145478350175,10.856026768062662,4.580389568031814,0.03333333333333333,0.0445709228515625,0.0701141357421875,0.0576324462890625,0.1410064697265625,0.265625,0.1243438720703125,0.0637359619140625,0.072509765625,0.0670623779296875,0.0933990478515625,aluminium_foil
76.12356483984478,5.369664206675298,0.2982004037883773,0.05928440657707916,0.8511818745741677,0.0035342996088144644,76.12356483984523,0.2982004037883795,6.430337927849056,9.764808178479283,3.91886937866144,0.02189031862745098,0.0349578857421875,0.055206298828125,0.0634613037109375,0.1567840576171875,0.2738800048828125,0.1425018310546875,0.0721282958984375,0.0658416748046875,0.0552978515625,0.0799407958984375,aluminium_foil
153.78509282787826,8.774327617382742,0.18200602257066914,0.03545347042037108,0.7847975874815891,0.0012639181489555074,153.78509282787866,0.1820060225706694,6.867997923437628,10.94426544068114,4.608218389502868,0.02339154411764706,0.0437774658203125,0.06988525390625,0.0623016357421875,0.147003173828125,0.2618865966796875,0.1263885498046875,0.0661163330078125,0.0744171142578125,0.058563232421875,0.08966064453125,aluminium_foil
105.5504493163684,6.48680519511725,0.2799057215673382,0.062429303381076676,0.8332144380288948,0.003922747759557583,105.55044931636867,0.2799057215673391,6.5015235714681765,9.977960028011896,4.162761231367163,0.03226102941176471,0.033294677734375,0.053619384765625,0.066650390625,0.16583251953125,0.26513671875,0.1353607177734375,0.0710296630859375,0.071197509765625,0.060089111328125,0.077789306640625,aluminium_foil
90.59537246792038,5.806527282175104,0.2948568694896171,0.061293132967987975,0.8527065737163153,0.0037773805624393406,90.59537246792098,0.2948568694896205,6.422347675556342,9.747980778633401,3.9922246451004946,0.02389705882352941,0.0327301025390625,0.0552978515625,0.059539794921875,0.16131591796875,0.27642822265625,0.143707275390625,0.07330322265625,0.0638427734375,0.0577239990234375,0.07611083984375,aluminium_foil
107.31263921929033,6.632599270713163,0.26260524484402525,0.05396473934392512,0.8359965494081669,0.0029370090763978203,107.31263921929063,0.2626052448440255,6.571757853266732,10.129735307984024,4.201243652340871,0.021216299019607844,0.0340118408203125,0.05731201171875,0.0659942626953125,0.1672821044921875,0.2623443603515625,0.13226318359375,0.069671630859375,0.07171630859375,0.059173583984375,0.080230712890625,aluminium_foil
78.03011089484771,5.132146289888478,0.3272798499286518,0.07265104386242997,0.8334590550640943,0.005311614163414788,78.03011089484812,0.32727984992865383,6.175834623688359,9.338698619428252,3.8075026777836545,0.029810049019607845,0.0311126708984375,0.055206298828125,0.0658111572265625,0.168426513671875,0.2601318359375,0.1351776123046875,0.07183837890625,0.0730133056640625,0.058990478515625,0.080291748046875,aluminium_foil
84.37977014549675,5.6795053434976905,0.2831115203998371,0.053328267225116625,0.8510065979249473,0.0028643388576537927,84.3797701454969,0.2831115203998377,6.462623283318076,9.858059865401351,3.9799410060826546,0.014522058823529412,0.0355072021484375,0.0558013916015625,0.064788818359375,0.160980224609375,0.26702880859375,0.1406402587890625,0.07525634765625,0.0663604736328125,0.0536956787109375,0.0799407958984375,aluminium_foil
112.14312436923252,7.0939462286139685,0.22019170718314685,0.03927777393079105,0.8201028009571265,0.0015530791223918624,112.14312436923296,0.2201917071831474,6.72151333831099,10.533564096488728,4.319674353434691,0.01133578431372549,0.0375823974609375,0.0605926513671875,0.06683349609375,0.161285400390625,0.25811767578125,0.134552001953125,0.07208251953125,0.0708465576171875,0.053985595703125,0.0841217041015625,aluminium_foil
148.13451849949507,8.697386717248166,0.18185209473693714,0.04315545687115739,0.776514913032587,0.0018697238887956911,148.13451849949536,0.18185209473693717,6.809550858546781,10.882229389574094,4.601332680718412,0.03416053921568627,0.0458831787109375,0.070892333984375,0.0594940185546875,0.1416473388671875,0.2629852294921875,0.122772216796875,0.0619049072265625,0.0753631591796875,0.06573486328125,0.09332275390625,aluminium_foil
79.47745353349633,5.623326545078804,0.2791177511490957,0.05340755581680152,0.856718431286656,0.002869534999007596,79.47745353349671,0.27911775114909726,6.5070418947683475,9.914066505574134,3.9865736746083122,0.016574754901960784,0.0323333740234375,0.05224609375,0.0625457763671875,0.1641387939453125,0.2818450927734375,0.1468353271484375,0.074951171875,0.05975341796875,0.05206298828125,0.0732879638671875,aluminium_foil
158.63284761269645,9.094637158785066,0.16375003153895343,0.03201682822494469,0.7566643309247061,0.001031095061726609,158.63284761269702,0.16375003153895376,6.871559942982967,11.064986412836214,4.659994816440137,0.02068014705882353,0.0483245849609375,0.0709686279296875,0.0645751953125,0.148834228515625,0.243133544921875,0.1240997314453125,0.068603515625,0.077301025390625,0.05841064453125,0.0957489013671875,aluminium_foil
128.0458334234422,7.790948763696605,0.20060567491860848,0.034111909001947834,0.8034135296330303,0.0011723804648218206,128.0458334234429,0.20060567491860973,6.83205577082334,10.791491662408417,4.44964720953008,0.010677083333333334,0.039459228515625,0.0611724853515625,0.06787109375,0.16400146484375,0.253082275390625,0.131561279296875,0.0692291259765625,0.072723388671875,0.0551605224609375,0.0857391357421875,aluminium_foil
104.68830900374822,6.7403356581603155,0.23638837946395233,0.0460645621283838,0.8211097855042111,0.0021358449162545623,104.68830900374854,0.2363883794639528,6.590485214533468,10.276257884084854,4.230113155218815,0.021292892156862746,0.0373992919921875,0.0618743896484375,0.063140869140625,0.156829833984375,0.2624053955078125,0.1382293701171875,0.07275390625,0.06787109375,0.0554351806640625,0.0840606689453125,aluminium_foil
122.69536001778123,7.4516252462994705,0.22007365995342199,0.03966026884358367,0.8144490713246404,0.0015865530897525052,122.69536001778158,0.22007365995342315,6.75766100624659,10.595860015334717,4.376831907919111,0.011243872549019608,0.0379791259765625,0.0607452392578125,0.071075439453125,0.162628173828125,0.2490386962890625,0.131317138671875,0.07073974609375,0.073577880859375,0.0561065673828125,0.0867919921875,aluminium_foil
98.49053137615292,6.246113363850416,0.26856340936009787,0.054542219875773144,0.8143995574138527,0.002997858473960391,98.49053137615338,0.2685634093601007,6.452499085721255,9.980314967622533,4.104158488262154,0.017049632352941175,0.0345001220703125,0.05682373046875,0.0717010498046875,0.1692352294921875,0.253662109375,0.1304168701171875,0.0711669921875,0.073577880859375,0.056060791015625,0.082855224609375,aluminium_foil
106.41469346224979,6.735515772178967,0.23870782476462138,0.04297246133888685,0.8215333726528009,0.0018594286215492931,106.41469346225009,0.23870782476462232,6.629246821039349,10.320576640912343,4.231543002479463,0.011029411764705883,0.03778076171875,0.0590057373046875,0.0666046142578125,0.16668701171875,0.25079345703125,0.1365203857421875,0.0756378173828125,0.0675811767578125,0.05438232421875,0.0850067138671875,aluminium_foil
127.3418395569006,7.87698319156092,0.18810680307449462,0.032633613709661134,0.789904199271487,0.0010726208330692926,127.34183955690116,0.18810680307449545,6.7882965881130115,10.811951265005312,4.464973650896251,0.008930759803921568,0.040771484375,0.06298828125,0.0701904296875,0.16583251953125,0.2424468994140625,0.1309814453125,0.0738525390625,0.0727691650390625,0.053924560546875,0.08624267578125,aluminium_foil
163.84338531153853,9.362427807213567,0.155981724377719,0.032778763918872286,0.7311033545382357,0.0010802357078201492,163.84338531153878,0.1559817243777191,6.824472731083479,11.07486772024113,4.698087668153683,0.02230392156862745,0.04827880859375,0.0757904052734375,0.0633544921875,0.14813232421875,0.2350311279296875,0.121612548828125,0.06842041015625,0.077392578125,0.062103271484375,0.099884033203125,aluminium_foil
109.58746144812082,6.942456522130895,0.22926007235244736,0.04351250805661787,0.8135446531820738,0.0019047912493186494,109.58746144812089,0.22926007235244802,6.622932787634033,10.361258725308476,4.277125049068047,0.010202205882352941,0.0374908447265625,0.0589752197265625,0.0668487548828125,0.1629180908203125,0.2603912353515625,0.138214111328125,0.0723876953125,0.0683135986328125,0.0518798828125,0.08258056640625,aluminium_foil
161.8352455936411,9.318438806588778,0.15332024363265995,0.03191357342269845,0.7315427516098513,0.0010247324788853107,161.83524559364184,0.15332024363266053,6.83254398270953,11.083016424204153,4.690878815605335,0.020588235294117647,0.0496826171875,0.07598876953125,0.066131591796875,0.1488494873046875,0.2233123779296875,0.1273193359375,0.0727386474609375,0.0771942138671875,0.058197021484375,0.1005859375,aluminium_foil
141.11686932309658,8.423065737937318,0.1751571218323182,0.028788329096750782,0.7807839645437554,0.0008357362412564314,141.11686932309686,0.17515712183231896,6.878904210874899,10.99085173285915,4.554248310502626,0.006924019607843137,0.0410614013671875,0.0624542236328125,0.0725860595703125,0.1679840087890625,0.236297607421875,0.12921142578125,0.0708160400390625,0.0748443603515625,0.05511474609375,0.089630126953125,aluminium_foil
113.7666542615818,7.211057495915024,0.21196052411356076,0.04083529745278108,0.7866191952183463,0.0016792465126469452,113.76665426158208,0.21196052411356117,6.598111916924905,10.428893622859157,4.330426356862819,0.014506740196078432,0.0395660400390625,0.0620880126953125,0.0670013427734375,0.1622161865234375,0.2474822998046875,0.135040283203125,0.07330322265625,0.0699615478515625,0.0546417236328125,0.0886993408203125,aluminium_foil
135.4309649684011,8.076832182934433,0.19205164349462417,0.03316925022095219,0.7937776055332124,0.0011102572754172755,135.43096496840155,0.19205164349462497,6.817124890174112,10.819926367275706,4.492550787224884,0.007735906862745098,0.0404510498046875,0.0645294189453125,0.0700531005859375,0.1688385009765625,0.234771728515625,0.13055419921875,0.0714874267578125,0.0746917724609375,0.0556182861328125,0.0890045166015625,aluminium_foil
109.85884009455461,6.876585673178571,0.23025587189483282,0.04310674494092131,0.7982935411662234,0.001873970621264179,109.85884009455495,0.23025587189483435,6.5856719646872115,10.324970776551984,4.2489988778086145,0.010033700980392158,0.0370025634765625,0.0582733154296875,0.072845458984375,0.1739959716796875,0.243072509765625,0.128509521484375,0.0716400146484375,0.07427978515625,0.0543212890625,0.0860595703125,aluminium_foil
117.96880664888478,7.276483864379069,0.21900504574316734,0.03923477658692403,0.8048975659497697,0.001548818234864788,117.96880664888502,0.2190050457431685,6.684060180519262,10.508315896731595,4.346061931615129,0.009466911764705882,0.039276123046875,0.058258056640625,0.068817138671875,0.1694793701171875,0.2471923828125,0.1342010498046875,0.072113037109375,0.06976318359375,0.0552978515625,0.085601806640625,aluminium_foil
132.58669454056098,8.27325944348326,0.16681137339228866,0.029008913126768697,0.7646851093394318,0.0008471490813261674,132.5866945405613,0.16681137339228935,6.7937732172692655,10.934590656506874,4.528381270478152,0.00975796568627451,0.0438690185546875,0.0665283203125,0.072113037109375,0.1625213623046875,0.2323455810546875,0.1308135986328125,0.0750579833984375,0.0729522705078125,0.053131103515625,0.090667724609375,aluminium_foil
160.76729094579005,9.369503586360997,0.15062170772628966,0.034255964977057796,0.7003922422751434,0.0011799911186145167,160.76729094579008,0.15062170772628952,6.74117507352851,11.008381640047133,4.696205406572105,0.023544730392156862,0.051544189453125,0.0784454345703125,0.0687713623046875,0.1439666748046875,0.2183990478515625,0.1244964599609375,0.0711669921875,0.078582763671875,0.0606689453125,0.1039581298828125,aluminium_foil
113.58662242286593,7.3325291354286595,0.1968150107876465,0.036606599271602175,0.7823004333290984,0.0013480468662884024,113.58662242286617,0.19681501078764796,6.643305092473513,10.5652670586775,4.362313514333645,0.007261029411764706,0.039215087890625,0.059814453125,0.071990966796875,0.166961669921875,0.2448272705078125,0.1370086669921875,0.0749664306640625,0.068511962890625,0.05224609375,0.0844573974609375,aluminium_foil
1.8487733083429454,0.9480840602172244,0.6087602021299244,0.11642617368347638,0.9714885115801262,0.013671156048829732,1.8487733083429452,0.6087602021299245,5.432554721615378,6.8100739399142665,1.7697404787404822,0.043581495098039214,0.0083160400390625,0.023956298828125,0.0288238525390625,0.145721435546875,0.395538330078125,0.2354888916015625,0.0668792724609375,0.0298004150390625,0.0272216796875,0.0382537841796875,brown_bread
2.0937276978806234,1.0134151678441,0.5902791332521669,0.11106780690312294,0.9670956396395257,0.012402034260994215,2.093727697880623,0.5902791332521667,5.443349985971167,6.920805385117429,1.8429478340386898,0.032965686274509805,0.0082550048828125,0.024169921875,0.032135009765625,0.15069580078125,0.392303466796875,0.236328125,0.0666961669921875,0.0274658203125,0.0251922607421875,0.0367584228515625,brown_bread
4.752031310073045,1.542452241926181,0.4828388022615946,0.0645969644485025,0.9763932564196415,0.004216437032554398,4.752031310073049,0.48283880226159487,6.278612327326883,8.282468380163607,2.3167213439375085,0.011902573529411764,0.010986328125,0.0236053466796875,0.0364227294921875,0.1561126708984375,0.42022705078125,0.2042236328125,0.058990478515625,0.0274200439453125,0.0248870849609375,0.0371246337890625,brown_bread
5.991975922722039,1.6997513276143796,0.4619398560683433,0.08067243461876963,0.9262116803535969,0.006545814418868094,5.99197592272203,0.4619398560683431,5.623017332391492,7.8224790693110515,2.451747770244029,0.01825980392156863,0.023101806640625,0.044189453125,0.0587005615234375,0.1620330810546875,0.291168212890625,0.195037841796875,0.0837554931640625,0.0457763671875,0.0370635986328125,0.059173583984375,brown_bread
12.18670904820264,2.447544333910034,0.37013538357726244,0.05695022917230309,0.9135022402081867,0.0032633512078998742,12.186709048202616,0.37013538357726194,6.055405942854417,8.750902464633397,2.8982675574728125,0.008838848039215686,0.024932861328125,0.042999267578125,0.0616912841796875,0.17010498046875,0.2956390380859375,0.1826324462890625,0.0791778564453125,0.0469970703125,0.035980224609375,0.059844970703125,brown_bread
15.859080116421563,2.7100002853469825,0.36213683476982844,0.051378702578052216,0.934800809233705,0.002655154822091529,15.859080116421568,0.3621368347698278,6.380181437261545,9.158467981767396,3.044680205754684,0.01053921568627451,0.0237579345703125,0.043548583984375,0.0613861083984375,0.167083740234375,0.3032684326171875,0.1820831298828125,0.07763671875,0.044891357421875,0.0366668701171875,0.0596771240234375,brown_bread
1.9683652471405226,0.9727467350297968,0.604212663804503,0.10832449459631226,0.9791819047502247,0.011831491209817404,1.968365247140523,0.6042126638045031,5.639681370818196,7.0374424972274605,1.8082679006009168,0.040318627450980395,0.008056640625,0.0221099853515625,0.0251922607421875,0.140899658203125,0.4095611572265625,0.2389678955078125,0.0630340576171875,0.0279083251953125,0.0258331298828125,0.0384368896484375,brown_bread
1.3691928284794308,0.8037687728277587,0.6517204764778978,0.13396064661967308,0.976763398616204,0.01802091861921775,1.3691928284794312,0.6517204764778979,5.280842781916904,6.463257576932192,1.6200227862491747,0.05183823529411765,0.0091705322265625,0.0249786376953125,0.0288543701171875,0.1425323486328125,0.3692626953125,0.2429351806640625,0.0742950439453125,0.0330810546875,0.0322418212890625,0.0426483154296875,brown_bread
4.744972816945401,1.4994359741445593,0.5016362254138079,0.06387607880664038,0.9820132112345862,0.004114557066446497,4.744972816945406,0.5016362254138079,6.43972617662027,8.377723281737392,2.313656116389573,0.016145833333333335,0.0106964111328125,0.0244903564453125,0.033203125,0.155975341796875,0.4150848388671875,0.202972412109375,0.059967041015625,0.0297393798828125,0.028533935546875,0.039337158203125,brown_bread
5.759673487961364,1.6902964755142262,0.4574251526217998,0.0828436526007319,0.928054678440452,0.006916930472985825,5.759673487961361,0.4574251526217994,5.59666893344402,7.776272287598292,2.4277334346550257,0.021767769607843136,0.0230865478515625,0.044189453125,0.05810546875,0.15960693359375,0.2971954345703125,0.1931610107421875,0.0824432373046875,0.04351806640625,0.03704833984375,0.0616455078125,brown_bread
5.485463613754331,1.6524586997789332,0.4613017476597788,0.08726438542109036,0.9185025436616747,0.007652750554646458,5.485463613754326,0.4613017476597787,5.47774470029636,7.632841689087705,2.4024363683998766,0.02071078431372549,0.023712158203125,0.04443359375,0.0601959228515625,0.1630859375,0.28472900390625,0.1942291259765625,0.08489990234375,0.04534912109375,0.0374908447265625,0.0618743896484375,brown_bread
12.876658887206855,2.467482789071511,0.37988620709122184,0.05252672201686117,0.9409624031366846,0.002781217845102993,12.876658887206844,0.3798862070912215,6.33599917827562,8.988076938821568,2.9193830379654084,0.009957107843137254,0.0228271484375,0.0416412353515625,0.059112548828125,0.16448974609375,0.314453125,0.1869354248046875,0.0773468017578125,0.042144775390625,0.035919189453125,0.0551300048828125,brown_bread
7.260540657439458,1.9095421832948876,0.4239331752495066,0.07629409566533978,0.9112308963767175,0.005853473613978685,7.2605406574394475,0.4239331752495064,5.6305212131199145,7.989265638781992,2.5776035823654277,0.016482843137254902,0.026458740234375,0.0456085205078125,0.0608673095703125,0.165496826171875,0.2801666259765625,0.1877288818359375,0.0851287841796875,0.0469818115234375,0.0382080078125,0.0633544921875,brown_bread
9.054169249807792,2.0833991133218026,0.41459255018275787,0.06538280113913301,0.9224774259241613,0.004298928303274946,9.054169249807767,0.4145925501827576,5.912517997442624,8.357340737120406,2.7078583450335403,0.012530637254901961,0.0224456787109375,0.0410919189453125,0.058380126953125,0.1700592041015625,0.299835205078125,0.1891632080078125,0.0808258056640625,0.0450286865234375,0.0364837646484375,0.0566864013671875,brown_bread
16.601660509179183,2.7707137579296464,0.35787899571334325,0.050427155732506765,0.9315464280082655,0.0025581259980483515,16.601660509179162,0.35787899571334325,6.401145372989006,9.198939025631791,3.0732904862687036,0.009987745098039215,0.025848388671875,0.0423431396484375,0.063934326171875,0.165069580078125,0.301300048828125,0.1793975830078125,0.0774993896484375,0.0455474853515625,0.0383453369140625,0.0607147216796875,brown_bread
5.706704617815267,1.6704681943243003,0.46234079340845746,0.08387168931087395,0.9335469798178515,0.007081270997535068,5.706704617815264,0.462340793408457,5.602102806814743,7.758510519842605,2.4185884315612185,0.022916666666666665,0.023468017578125,0.0452880859375,0.0556793212890625,0.15960693359375,0.29742431640625,0.1941070556640625,0.0836944580078125,0.0438690185546875,0.03656005859375,0.060302734375,brown_bread
3.651310433487123,1.3460538614955793,0.5160735186028005,0.11105596489192646,0.9193553077908629,0.012389367995975798,3.6513104334871205,0.5160735186028,5.140011941460286,7.014389000310908,2.1656477847445954,0.03518688725490196,0.0252685546875,0.0471954345703125,0.0582122802734375,0.1595001220703125,0.2663116455078125,0.195068359375,0.0903167724609375,0.048858642578125,0.041107177734375,0.0681610107421875,brown_bread
13.301147965926567,2.4657777657631708,0.38844521971994145,0.05263339335256932,0.9451799432489815,0.002789333838941997,13.301147965926567,0.38844521971994084,6.401448265153498,9.025812462645478,2.929503378717825,0.011994485294117648,0.0235748291015625,0.0424652099609375,0.058563232421875,0.162750244140625,0.3064422607421875,0.188720703125,0.0767059326171875,0.04345703125,0.0380859375,0.059234619140625,brown_bread
5.409954419574203,1.6498226493416008,0.4616069071935036,0.09219049798824072,0.8999544801385946,0.00855023650269416,5.409954419574202,0.4616069071935032,5.3104038760101755,7.457601818958075,2.399850891713478,0.02535232843137255,0.028533935546875,0.052825927734375,0.06329345703125,0.15435791015625,0.26031494140625,0.184967041015625,0.0898284912109375,0.048919677734375,0.0442047119140625,0.07275390625,brown_bread
6.78335848892254,1.853227860077857,0.4300073977570992,0.08238736608824904,0.8923860884352086,0.006821045154221252,6.783358488922531,0.43000739775709856,5.439773059735813,7.753671278118989,2.5394320430183095,0.01752450980392157,0.02923583984375,0.05206298828125,0.0670013427734375,0.1590576171875,0.2546844482421875,0.1822357177734375,0.0904083251953125,0.05035400390625,0.0435333251953125,0.0714263916015625,brown_bread
16.7672503664456,2.7844469374759764,0.36368345922720413,0.0539252836704062,0.9199475402517744,0.002927663950144992,16.767250366445595,0.3636834592272044,6.278448682725108,9.050218580873207,3.0880248585056926,0.013495710784313726,0.0282440185546875,0.0471038818359375,0.0635833740234375,0.156585693359375,0.284393310546875,0.1833648681640625,0.07843017578125,0.04864501953125,0.0423431396484375,0.0673065185546875,brown_bread
6.746372323745683,1.863863342824877,0.4257900203304915,0.08333050802984422,0.8872870532777681,0.006979297011387666,6.746372323745674,0.4257900203304915,5.400586117537406,7.7222901884258315,2.5412846503337256,0.018918504901960783,0.029266357421875,0.0499114990234375,0.065521240234375,0.1605377197265625,0.261444091796875,0.1822357177734375,0.08892822265625,0.0491180419921875,0.042205810546875,0.070831298828125,brown_bread
12.500498245866993,2.478456933631296,0.36756581996701887,0.06009091033891054,0.8933194384113273,0.003632139869796137,12.500498245866973,0.3675658199670184,5.911603316606759,8.600074494961566,2.91708921419535,0.011810661764705882,0.0275726318359375,0.0468902587890625,0.064422607421875,0.1674041748046875,0.275848388671875,0.183319091796875,0.08172607421875,0.049957275390625,0.0385589599609375,0.064300537109375,brown_bread
17.85393871948289,2.923758350153791,0.3425851389714497,0.05196435168114674,0.91008211321934,0.002716394054852891,17.853938719482887,0.3425851389714496,6.245349652425617,9.113789705764834,3.142984036792903,0.010677083333333334,0.027008056640625,0.0459442138671875,0.0641937255859375,0.1687164306640625,0.2826080322265625,0.1795806884765625,0.0785675048828125,0.049041748046875,0.040069580078125,0.06427001953125,brown_bread
7.967916291210125,2.0078388270136505,0.41057058189829665,0.07478535364672143,0.9057763799752723,0.005627004039050709,7.967916291210112,0.4105705818982962,5.616947310804749,8.028665426935056,2.6370062954997366,0.017677696078431372,0.0296478271484375,0.0503387451171875,0.0639801025390625,0.1580963134765625,0.269775390625,0.18621826171875,0.0856170654296875,0.04937744140625,0.0386962890625,0.0682525634765625,brown_bread
4.654317750384473,1.5389745230199927,0.4767441585433769,0.10605071047277603,0.8879293957481306,0.011298090218120282,4.654317750384467,0.47674415854337676,5.086485387340426,7.13586490520109,2.310931806331784,0.03229166666666667,0.02972412109375,0.0535125732421875,0.065032958984375,0.1544036865234375,0.2491455078125,0.1836090087890625,0.0922393798828125,0.053253173828125,0.0444793701171875,0.0746002197265625,brown_bread
16.99744447748463,2.8273224390859304,0.3557674261015719,0.05171850395068104,0.9216861349314491,0.0026911730532952842,16.99744447748462,0.3557674261015714,6.313034585821903,9.115756404235476,3.106121764274671,0.01136642156862745,0.0256805419921875,0.0445556640625,0.0629119873046875,0.16351318359375,0.2913360595703125,0.1854248046875,0.07952880859375,0.0452728271484375,0.039276123046875,0.0625,brown_bread
6.467547938292975,1.8255887459150348,0.4311060586578331,0.08800946482410163,0.8856030761258822,0.007792219802646887,6.467547938292964,0.4311060586578331,5.325949899873386,7.606045473696633,2.5140257191604696,0.023268995098039216,0.031280517578125,0.054107666015625,0.0635528564453125,0.1537017822265625,0.2580413818359375,0.1827545166015625,0.088836669921875,0.051849365234375,0.0420989990234375,0.0737762451171875,brown_bread
6.94169656802673,1.8989493974673235,0.4194677300630899,0.08497535489158502,0.8753767235987034,0.007255311845653662,6.94169656802672,0.41946773006308935,5.3300155337633495,7.672038591923483,2.5615318139839443,0.0194546568627451,0.0304107666015625,0.0533905029296875,0.0660247802734375,0.1579437255859375,0.25506591796875,0.1859283447265625,0.08746337890625,0.051025390625,0.04150390625,0.0712432861328125,brown_bread
18.73166839376686,2.977350913711076,0.34751638540425284,0.054684857902862,0.9050982903723038,0.003011037839155767,18.73166839376682,0.3475163854042523,6.206322140867114,9.060065619380829,3.174010628587223,0.015732230392156862,0.027435302734375,0.0454254150390625,0.0647735595703125,0.16162109375,0.2857666015625,0.1810150146484375,0.07928466796875,0.04718017578125,0.0418701171875,0.0656280517578125,brown_bread
7.420247996563845,1.9688731347318358,0.40983966427057295,0.08175262356220948,0.8791968919372788,0.0067180001050756045,7.4202479965638215,0.4098396642705724,5.398003745549868,7.789248172108312,2.605103128953835,0.018949142156862744,0.0296630859375,0.0519866943359375,0.066497802734375,0.159393310546875,0.2589111328125,0.185791015625,0.0873565673828125,0.050537109375,0.0404815673828125,0.0693817138671875,brown_bread
13.206274404676083,2.61911114415129,0.34308922011984033,0.058108199067781606,0.8796167862440719,0.0033967549969626085,13.206274404676087,0.34308922011984,5.858021685665356,8.634209124596703,2.970616112868985,0.008241421568627451,0.028564453125,0.0499725341796875,0.0654296875,0.1651763916015625,0.2745513916015625,0.1813201904296875,0.0828094482421875,0.049072265625,0.037811279296875,0.0652923583984375,brown_bread
17.466441648044032,2.924821297698006,0.3397317273449356,0.05396991509667855,0.9020680122952833,0.002930678973862748,17.46644164804402,0.339731727344935,6.146675968217042,9.00000148849513,3.142165899612424,0.013189338235294118,0.027069091796875,0.0448760986328125,0.064849853515625,0.1662139892578125,0.2859954833984375,0.1797637939453125,0.079437255859375,0.0481719970703125,0.0396881103515625,0.063934326171875,brown_bread
7.721491824058063,2.0014166126009245,0.4062145998003952,0.082022824245605,0.8797052206917801,0.006764418240373891,7.721491824058054,0.4062145998003949,5.404541680845244,7.8076450783772575,2.623817293885022,0.019898897058823528,0.0312042236328125,0.054046630859375,0.0630645751953125,0.1549530029296875,0.26129150390625,0.1837158203125,0.0885162353515625,0.05029296875,0.0395660400390625,0.0733489990234375,brown_bread
4.838853100370051,1.5756259461505195,0.46945616795619527,0.10895163658067608,0.8689262118299668,0.011925832993121655,4.83885310037005,0.46945616795619527,4.99405447201903,7.066900472150732,2.336649606384795,0.03552389705882353,0.0313720703125,0.0548248291015625,0.0636749267578125,0.1544952392578125,0.2436981201171875,0.1846466064453125,0.0915374755859375,0.0549468994140625,0.04400634765625,0.0767974853515625,brown_bread
20.956412707852774,3.190234885620925,0.3242399461789024,0.04977432559646836,0.8979751267054665,0.002493170797356623,20.95641270785275,0.32423994617890217,6.2577133167022225,9.227459610532136,3.255848544910241,0.010431985294117646,0.0271453857421875,0.0455322265625,0.0657806396484375,0.1641693115234375,0.2863006591796875,0.1818695068359375,0.0801239013671875,0.046966552734375,0.0395965576171875,0.0625152587890625,brown_bread
6.590808433054604,1.8691296316320658,0.4200224367557718,0.0922011163107093,0.8615827857415757,0.008548972687631282,6.590808433054595,0.42002243675577144,5.191857031195326,7.492555375879352,2.5313111554240644,0.02495404411764706,0.031982421875,0.05474853515625,0.0653839111328125,0.154754638671875,0.252044677734375,0.1839141845703125,0.0884246826171875,0.0512847900390625,0.0424957275390625,0.0749664306640625,brown_bread
8.192632400999633,2.102370842945023,0.38658759557496974,0.08015213629088416,0.8545266764900084,0.006456518809667955,8.192632400999614,0.38658759557496936,5.34417732684376,7.820696992373661,2.6725580347151583,0.01764705882352941,0.03167724609375,0.054718017578125,0.0684356689453125,0.1551971435546875,0.2520751953125,0.18499755859375,0.0882720947265625,0.0508270263671875,0.040679931640625,0.0731201171875,brown_bread
17.112018154075393,2.94425308174741,0.33211704261037345,0.05436359177846872,0.8899592467403297,0.002978884818756967,17.112018154075358,0.3321170426103732,6.05482019663785,8.91867501361262,3.139914127909892,0.01444546568627451,0.0281982421875,0.045196533203125,0.06353759765625,0.163909912109375,0.287109375,0.182281494140625,0.080230712890625,0.04644775390625,0.0399322509765625,0.0631561279296875,brown_bread
7.499238844434846,2.0054191296616715,0.3995236603339505,0.08456391881081043,0.8632254851493801,0.007188789363770426,7.499238844434832,0.3995236603339502,5.302131441596912,7.706682215487702,2.6148125314342305,0.020818014705882352,0.0306854248046875,0.0530548095703125,0.0677642822265625,0.15814208984375,0.2554779052734375,0.1836090087890625,0.089263916015625,0.051055908203125,0.0397186279296875,0.07122802734375,brown_bread
13.978762525230684,2.742684183967708,0.3246476537574819,0.057368988033842265,0.8650465177044981,0.0033106812567215947,13.978762525230682,0.32464765375748167,5.813534944964968,8.653987057725033,3.015640900003503,0.007735906862745098,0.029754638671875,0.04925537109375,0.0670318603515625,0.16644287109375,0.272064208984375,0.1792755126953125,0.0828857421875,0.049713134765625,0.037750244140625,0.065826416015625,brown_bread
18.600233383794688,3.0642548839388706,0.32632920679552163,0.05460404361277053,0.8912602007508341,0.003000794749140056,18.60023338379469,0.3263292067955215,6.096896541010931,8.993169593236424,3.197404869394415,0.013587622549019608,0.0264129638671875,0.0434722900390625,0.0630035400390625,0.1692047119140625,0.291046142578125,0.1824798583984375,0.0782318115234375,0.046844482421875,0.0384063720703125,0.0608978271484375,brown_bread
8.926261669189753,2.1606424662389485,0.3850871763193505,0.08033814607589986,0.8581098754156193,0.006489297769849069,8.926261669189735,0.38508717631935013,5.3892047760729715,7.8938443108633916,2.716388766896899,0.01881127450980392,0.03240966796875,0.0559539794921875,0.0677947998046875,0.15216064453125,0.2530975341796875,0.1838226318359375,0.086669921875,0.05291748046875,0.040435791015625,0.074737548828125,brown_bread
5.746391577157834,1.7211533574827007,0.4456628009107739,0.1043540324598031,0.8507105410518669,0.010940967820742487,5.746391577157824,0.44566280091077354,5.020787061203688,7.205455130689044,2.441568945121713,0.03163296568627451,0.03179931640625,0.0567169189453125,0.066558837890625,0.152191162109375,0.2424774169921875,0.1828460693359375,0.09234619140625,0.0539093017578125,0.0433349609375,0.07781982421875,brown_bread
19.992506758218042,3.1641415861687836,0.320423183879189,0.052825674824957695,0.8849323124303037,0.002808509134470561,19.992506758217992,0.3204231838791889,6.118234883096121,9.067032797342701,3.2408126236496653,0.013066789215686275,0.027496337890625,0.0451812744140625,0.0652618408203125,0.1691741943359375,0.2837677001953125,0.1781768798828125,0.0804290771484375,0.0489654541015625,0.0395050048828125,0.062042236328125,brown_bread
6.880151759539613,1.9108731167099213,0.41297862940866426,0.09517685799684503,0.8331682384890493,0.009110481343881427,6.8801517595396,0.41297862940866403,5.083099318224612,7.404522988133991,2.552841348895745,0.025566789215686274,0.03173828125,0.0655670166015625,0.0699462890625,0.149322509765625,0.2351531982421875,0.175079345703125,0.0909881591796875,0.0628662109375,0.04290771484375,0.0764312744140625,brown_bread
8.951159484933697,2.1951979857506743,0.3782170269666467,0.08197654110019485,0.8196588139722969,0.006827766397386118,8.95115948493368,0.3782170269666463,5.24744015045078,7.74921093509284,2.697313234191486,0.02193627450980392,0.0309295654296875,0.0753631591796875,0.064544677734375,0.13189697265625,0.2661895751953125,0.162322998046875,0.08367919921875,0.0702056884765625,0.041290283203125,0.073577880859375,brown_bread
19.166274149365627,3.146840818435214,0.31358587127986914,0.05401173652839524,0.8712090526821009,0.0029327864019761517,19.166274149365627,0.31358587127986914,6.0074182745233005,8.955977943307856,3.226295916099786,0.01326593137254902,0.0285797119140625,0.04827880859375,0.070220947265625,0.1658782958984375,0.2714996337890625,0.1768951416015625,0.083984375,0.0519561767578125,0.0400848388671875,0.0626220703125,brown_bread
8.464443363129575,2.1349122332756645,0.38169909668429003,0.08564589425219002,0.824160369892996,0.007374184434730172,8.464443363129565,0.3816990966842898,5.203390553246724,7.682526231255553,2.6864385099357104,0.020496323529411765,0.0342254638671875,0.062408447265625,0.0711822509765625,0.1511993408203125,0.2369842529296875,0.17425537109375,0.0920867919921875,0.05828857421875,0.04278564453125,0.0765838623046875,brown_bread
17.353906009707828,3.057455095396004,0.3043819997325426,0.05570174099644051,0.8347068924067933,0.0031462987731759617,17.353906009707806,0.3043819997325424,5.800357769786428,8.74436963542987,3.139203974796662,0.011075367647058824,0.0291748046875,0.0613861083984375,0.0668792724609375,0.1534271240234375,0.2808380126953125,0.1627960205078125,0.078704833984375,0.0642242431640625,0.039031982421875,0.06353759765625,brown_bread
21.997389045078855,3.420183342945023,0.2878423262814471,0.04870712382220323,0.8653076003228481,0.0023874828831719425,21.997389045078815,0.2878423262814468,6.088127446724742,9.168056279465977,3.3204833529826363,0.009528186274509805,0.027587890625,0.0500640869140625,0.0711822509765625,0.171356201171875,0.27032470703125,0.1743011474609375,0.083526611328125,0.0539093017578125,0.037261962890625,0.06048583984375,brown_bread
7.950644508722624,2.045482611856019,0.3963046035504352,0.0897410080006859,0.830680804033279,0.008088044878509077,7.950644508722606,0.3963046035504347,5.173667385977939,7.592139049212353,2.6444186152207374,0.021721813725490195,0.03375244140625,0.05902099609375,0.0701904296875,0.1532745361328125,0.2384185791015625,0.176055908203125,0.0901031494140625,0.055633544921875,0.0423431396484375,0.081207275390625,brown_bread
6.890415420150917,1.9005325625961187,0.4178510255855605,0.09982907313540454,0.8230879121089839,0.01004967339937136,6.890415420150903,0.4178510255855603,5.025062104999771,7.322701163435987,2.5470835055096637,0.03223039215686275,0.0323333740234375,0.0657196044921875,0.06536865234375,0.145355224609375,0.244293212890625,0.175628662109375,0.0904541015625,0.0609588623046875,0.0422210693359375,0.077667236328125,brown_bread
20.052247182574035,3.2545091431180273,0.30170603112191097,0.05232036142381558,0.8676953383984337,0.0027525122094512956,20.052247182574007,0.30170603112191074,6.024654271138536,9.022406798123587,3.2631687945421524,0.011029411764705883,0.0274200439453125,0.0470733642578125,0.067291259765625,0.1717529296875,0.27978515625,0.17584228515625,0.08197021484375,0.05072021484375,0.0380401611328125,0.0601043701171875,brown_bread
7.75549818579394,2.045285136726261,0.39233562218567436,0.0860377202366859,0.8518289576219824,0.007439512179627905,7.755498185793925,0.39233562218567386,5.258958303168331,7.6679187189566616,2.632511231112564,0.019852941176470587,0.0276641845703125,0.0583038330078125,0.0663299560546875,0.1583099365234375,0.2586822509765625,0.1890411376953125,0.085357666015625,0.0518341064453125,0.037322998046875,0.0671539306640625,brown_bread
9.662582945862184,2.287820684952904,0.36733273163370306,0.07964024730367256,0.8198716130059209,0.006441015218354205,9.662582945862168,0.3673327316337028,5.294083889469354,7.843817394930277,2.748378199147746,0.02192095588235294,0.028076171875,0.07318115234375,0.0615997314453125,0.1397247314453125,0.276123046875,0.16839599609375,0.0833740234375,0.0648651123046875,0.0382232666015625,0.066436767578125,brown_bread
18.82782978601979,3.166436061250481,0.30280701141320804,0.050403711265938886,0.8833337547503084,0.00255784732164766,18.827829786019798,0.3028070114132082,6.087550125357897,9.057603021165804,3.21472088652364,0.009957107843137254,0.02301025390625,0.048187255859375,0.067596435546875,0.1669158935546875,0.3012237548828125,0.1796875,0.07666015625,0.05120849609375,0.0336456298828125,0.0518646240234375,brown_bread
7.0863773849000475,1.967260278498654,0.40040315245596386,0.08730445470940768,0.8578016357516187,0.007662590396783623,7.0863773849000395,0.4004031524559637,5.241346477482817,7.598454338608307,2.5789050868077714,0.022349877450980393,0.0243682861328125,0.052001953125,0.0617523193359375,0.162353515625,0.283966064453125,0.192626953125,0.0832672119140625,0.046234130859375,0.0332489013671875,0.0601806640625,brown_bread
12.522206242791235,2.6652344951460973,0.322396222812119,0.06197217198675485,0.8406063582765827,0.0038707592149551297,12.522206242791233,0.3223962228121188,5.611796708345196,8.390629643070454,2.9491352481839876,0.009129901960784314,0.0265960693359375,0.0502471923828125,0.0670166015625,0.16650390625,0.288238525390625,0.1746826171875,0.07977294921875,0.051849365234375,0.03631591796875,0.05877685546875,brown_bread
23.76427607470686,3.6198883692570125,0.2677956893560971,0.04424037821249922,0.8740842578297532,0.001969696823935584,23.764276074706842,0.26779568935609704,6.205549601885016,9.374153881396607,3.3802623552752697,0.007337622549019608,0.025054931640625,0.04449462890625,0.06427001953125,0.1721649169921875,0.304718017578125,0.1810455322265625,0.0746612548828125,0.04486083984375,0.0335235595703125,0.055206298828125,brown_bread
7.078290546304315,1.935893962057862,0.4098467868109131,0.09528716974514127,0.8360101039485295,0.009121143572548975,7.078290546304307,0.4098467868109128,5.099887830161665,7.435937974765757,2.574034431064919,0.024831495098039214,0.030517578125,0.0590362548828125,0.0664520263671875,0.154510498046875,0.24591064453125,0.1883087158203125,0.088043212890625,0.0518035888671875,0.0401763916015625,0.0752410888671875,brown_bread
6.421543231569598,1.8268065317425997,0.4286450758372824,0.11006983182295241,0.8024926385649962,0.012170898684978705,6.421543231569588,0.428645075837282,4.853378328475316,7.08438074374688,2.510107182279183,0.03529411764705882,0.035308837890625,0.064117431640625,0.070098876953125,0.1452178955078125,0.2215728759765625,0.1833953857421875,0.0933837890625,0.05682373046875,0.045196533203125,0.0848846435546875,brown_bread
24.947422310529646,3.743806663903306,0.2560794083053156,0.04497506814826911,0.8382183445986127,0.0020333501593305338,24.947422310529603,0.2560794083053154,6.069295509514407,9.301090989896988,3.4193079553557135,0.006280637254901961,0.0322418212890625,0.0513916015625,0.071014404296875,0.1648406982421875,0.26422119140625,0.17547607421875,0.0821685791015625,0.051727294921875,0.0390167236328125,0.067901611328125,brown_bread
7.762581699346419,2.0409725526239932,0.3944803036555741,0.09464427342798909,0.8220419880261933,0.009000373881822765,7.762581699346406,0.3944803036555738,5.080332048350899,7.465962205689129,2.6367642814963093,0.025689338235294117,0.029388427734375,0.058074951171875,0.0649261474609375,0.1556549072265625,0.254486083984375,0.190155029296875,0.08831787109375,0.0498199462890625,0.037353515625,0.0718231201171875,brown_bread
10.429374984981735,2.4026417573769705,0.34928460696250196,0.07853953202992305,0.813935589085361,0.006216880825636822,10.429374984981738,0.34928460696250196,5.302059800974835,7.9241330178551905,2.819974206540855,0.018137254901960786,0.029083251953125,0.06201171875,0.0663604736328125,0.1499176025390625,0.2671356201171875,0.1846466064453125,0.0826416015625,0.0530242919921875,0.036468505859375,0.0687103271484375,brown_bread
22.538113991613834,3.583037488586122,0.2603596030423322,0.044699579833728215,0.8619297385587593,0.0020103449344846687,22.538113991613802,0.2603596030423322,6.1187046046402696,9.291811200376435,3.3490208631903897,0.005422794117647059,0.025970458984375,0.0460205078125,0.06640625,0.1688079833984375,0.30084228515625,0.1807708740234375,0.0767822265625,0.0448455810546875,0.0328826904296875,0.056671142578125,brown_bread
7.792353857290465,2.0841604340878517,0.3830219694580066,0.0846280080648161,0.8440660929254735,0.007203060210343168,7.792353857290466,0.3830219694580065,5.248239637692716,7.678899846344757,2.644053368998357,0.020818014705882352,0.0265960693359375,0.05438232421875,0.0631866455078125,0.156280517578125,0.277557373046875,0.1941375732421875,0.0833892822265625,0.0460205078125,0.0342559814453125,0.0641937255859375,brown_bread
14.787599796352392,2.924242043324685,0.29697752215010653,0.056682703011054554,0.8421644633122837,0.003240643256367491,14.787599796352366,0.2969775221501064,5.7461684037711995,8.658323743963539,3.0567702039577926,0.008348651960784314,0.0244140625,0.0502166748046875,0.0648651123046875,0.1693572998046875,0.301177978515625,0.1769256591796875,0.07659912109375,0.050384521484375,0.03118896484375,0.05487060546875,brown_bread
23.733925668613086,3.682378547313533,0.25443887133541027,0.043146486199038186,0.8670773093400284,0.0018752412290647912,23.733925668613033,0.2544388713354102,6.18468296499235,9.396373431430442,3.380468202560035,0.005330882352941177,0.0233917236328125,0.044097900390625,0.0631561279296875,0.17120361328125,0.3163909912109375,0.183013916015625,0.074951171875,0.0426788330078125,0.0291900634765625,0.0519256591796875,brown_bread
6.6547578905949685,1.886589157415418,0.4154118594387799,0.09696671443932223,0.839874738271183,0.00945053982445838,6.654757890594963,0.4154118594387794,5.080288644618465,7.37532514033836,2.5378000947877624,0.026746323529411763,0.0264129638671875,0.055206298828125,0.062835693359375,0.155670166015625,0.26983642578125,0.193756103515625,0.0835723876953125,0.0488739013671875,0.0359039306640625,0.06793212890625,brown_bread
5.744542378532299,1.7195995680747798,0.44658664497089084,0.11344956408023123,0.8346535907446989,0.012949939924107909,5.744542378532296,0.44658664497089073,4.88995913438125,7.026117765424199,2.436089055932686,0.039231004901960784,0.024658203125,0.056243896484375,0.0617523193359375,0.1528167724609375,0.2693328857421875,0.200286865234375,0.0863189697265625,0.049468994140625,0.0344390869140625,0.0646820068359375,brown_bread
22.526824118127642,3.5870786476355296,0.25940533456673454,0.044156888406722064,0.8676623025993584,0.001962861020263715,22.526824118127642,0.25940533456673426,6.15189681069912,9.326616994854962,3.3470967302977517,0.005346200980392157,0.0248565673828125,0.044677734375,0.0634613037109375,0.1687469482421875,0.3116607666015625,0.1836700439453125,0.076202392578125,0.0432586669921875,0.030120849609375,0.0533447265625,brown_bread
6.351529685097086,1.8513784812331808,0.41885405739179116,0.09599787814577393,0.8619216733034923,0.009264630378723104,6.351529685097079,0.41885405739179077,5.151021073486483,7.402014005941591,2.5117879778600254,0.025260416666666667,0.0207977294921875,0.0500946044921875,0.057342529296875,0.1593475341796875,0.3006744384765625,0.2048797607421875,0.0765380859375,0.043670654296875,0.0302581787109375,0.056396484375,brown_bread
10.60279977953192,2.4148995428441005,0.349756496587078,0.07769998866927626,0.8243557045593927,0.0061085741372073,10.60279977953191,0.34975649658707814,5.351032170601499,7.963854432795527,2.8172357009717293,0.019240196078431374,0.0249481201171875,0.0628662109375,0.061737060546875,0.1470184326171875,0.2963104248046875,0.1816864013671875,0.0787811279296875,0.054718017578125,0.0319061279296875,0.060028076171875,brown_bread
19.630733431853145,3.370582378171862,0.2676517289622772,0.04581609165020802,0.8763352559268708,0.002110950480853292,19.630733431853134,0.26765172896227696,6.116638811333065,9.20646603392554,3.255821236292813,0.0044424019607843136,0.0215911865234375,0.0402679443359375,0.065216064453125,0.1809844970703125,0.3108367919921875,0.192657470703125,0.072113037109375,0.041168212890625,0.027557373046875,0.047607421875,brown_bread
5.204959916258173,1.6790308264850058,0.4440060952142045,0.09763408670542685,0.8863995797580857,0.009584603809361882,5.20495991625817,0.4440060952142043,5.185686888098619,7.312325817345894,2.3896872064149997,0.02490808823529412,0.0179901123046875,0.042449951171875,0.0535125732421875,0.1638946533203125,0.320159912109375,0.2115478515625,0.0745391845703125,0.039031982421875,0.026580810546875,0.05029296875,brown_bread
11.947960054426193,2.630596330137449,0.31985917110455325,0.06047840755283375,0.8724523812149041,0.003699386335746583,11.947960054426183,0.31985917110455303,5.753000447647043,8.50488004681563,2.9044926127611177,0.010784313725490196,0.0186767578125,0.046295166015625,0.0567626953125,0.1650543212890625,0.3489532470703125,0.1806640625,0.06805419921875,0.0452728271484375,0.02581787109375,0.0444488525390625,brown_bread
18.941553594170543,3.3177102106161156,0.27153251576232085,0.04478827369253822,0.8951387304855813,0.0020185241452920144,18.94155359417051,0.27153251576232035,6.2113706561177455,9.275334757832113,3.2336078248853286,0.004963235294117647,0.017974853515625,0.0400848388671875,0.054412841796875,0.175628662109375,0.3564453125,0.1838836669921875,0.0675506591796875,0.0373992919921875,0.024658203125,0.041961669921875,brown_bread
8.815798355800666,2.199974904483853,0.37168657374110536,0.08189139635723747,0.844911412143639,0.006741821092562668,8.815798355800652,0.37168657374110525,5.321774996437832,7.824754076176175,2.7200462316255543,0.019240196078431374,0.025177001953125,0.0539093017578125,0.06304931640625,0.1593475341796875,0.281890869140625,0.1959686279296875,0.0814056396484375,0.0453033447265625,0.0325164794921875,0.061431884765625,brown_bread
4.905502511053443,1.5806769631872353,0.4700447573742007,0.11879632824935792,0.84495982306912,0.014212494187539443,4.905502511053442,0.4700447573742005,4.846529873848953,6.8660984375010194,2.3349111904184214,0.04345894607843137,0.0211334228515625,0.0549163818359375,0.0563507080078125,0.1492156982421875,0.2889862060546875,0.20343017578125,0.0832061767578125,0.0475921630859375,0.032196044921875,0.0629730224609375,brown_bread
17.77934239535276,3.2047870560601712,0.27914356019463493,0.047525610953326344,0.8851547637791494,0.00227175529977415,17.779342395352746,0.2791435601946347,6.101718595840853,9.122594663688009,3.191546424869653,0.006004901960784314,0.019805908203125,0.04034423828125,0.0571441650390625,0.1776123046875,0.3384246826171875,0.1847991943359375,0.0706939697265625,0.040374755859375,0.0263824462890625,0.0444183349609375,brown_bread
0.6976068849721262,0.5765973573865821,0.7237963035109519,0.158804059689648,0.9762885352638425,0.02536104063534627,0.697606884972126,0.7237963035109516,4.923708119372948,5.68643393090853,1.242289580952987,0.06150428921568627,0.0073089599609375,0.0199432373046875,0.0243072509765625,0.1334686279296875,0.365753173828125,0.2637939453125,0.0727691650390625,0.0356292724609375,0.03717041015625,0.03985595703125,corduroy
1.1233225802575935,0.7368783941272592,0.6700840345298799,0.1425913621715657,0.9832732594298054,0.020589461627268997,1.123322580257593,0.6700840345298797,5.353078562189646,6.260976123087714,1.4652755815525145,0.06865808823529412,0.0064544677734375,0.019287109375,0.0209503173828125,0.1169281005859375,0.3920135498046875,0.276519775390625,0.0619964599609375,0.0334625244140625,0.0335540771484375,0.0388336181640625,corduroy
2.477562055459439,1.1935507677335644,0.5255787270405317,0.09467506703650883,0.9629643330646894,0.009022336887906409,2.4775620554594386,0.5255787270405319,5.5078154378130915,7.146539009436055,1.9283342694246413,0.021798406862745097,0.009063720703125,0.0179290771484375,0.0320281982421875,0.1651763916015625,0.432281494140625,0.2045135498046875,0.0582275390625,0.0254364013671875,0.02227783203125,0.0330657958984375,corduroy
4.121299635356595,1.512636050437333,0.4682075029894536,0.098850504630561,0.9234920813106242,0.009838284404086331,4.121299635356594,0.46820750298945335,5.280971899566678,7.216388320290793,2.2342794864512796,0.028247549019607843,0.01678466796875,0.031951904296875,0.04833984375,0.1785888671875,0.3461761474609375,0.1898651123046875,0.07208251953125,0.0401153564453125,0.02899169921875,0.0471038818359375,corduroy
6.8852852869088865,1.9197460411860838,0.41512714976212517,0.08482417470857324,0.9293804259331437,0.007279910571996705,6.885285286908882,0.4151271497621253,5.611134544853898,7.783583712743702,2.5159339128249822,0.02420343137254902,0.0172576904296875,0.0350799560546875,0.0481109619140625,0.165924072265625,0.3679962158203125,0.1850433349609375,0.0632171630859375,0.04327392578125,0.027618408203125,0.046478271484375,corduroy
14.119262723471738,2.9132428332852767,0.2885329476212591,0.055360970597455615,0.8580338275727455,0.003081990641724271,14.119262723471742,0.2885329476212591,5.787040796070146,8.683974046703714,3.0324452418642784,0.006694240196078431,0.0209503173828125,0.0337982177734375,0.0625152587890625,0.192169189453125,0.3223419189453125,0.1789703369140625,0.0758056640625,0.0390625,0.0267486572265625,0.047637939453125,corduroy
0.8581772635524798,0.6421040284986542,0.7005303563250558,0.14270581940499438,0.9804502105562295,0.020623738011053834,0.8581772635524798,0.700530356325056,5.134103988661818,5.995478653089051,1.335992922315501,0.05361519607843137,0.0063934326171875,0.01776123046875,0.0216064453125,0.1278076171875,0.3819122314453125,0.2784881591796875,0.0655059814453125,0.032867431640625,0.031402587890625,0.0362548828125,corduroy
1.1057621467704737,0.7280305651672437,0.6736655102468857,0.14043162556493388,0.9841626844107145,0.020094693046981204,1.105762146770473,0.6736655102468855,5.327384123768585,6.241588787742551,1.4427709590858386,0.06510416666666667,0.00775146484375,0.022064208984375,0.0184783935546875,0.1106109619140625,0.3790435791015625,0.2889862060546875,0.05914306640625,0.034393310546875,0.0383758544921875,0.0411529541015625,corduroy
2.7019317840494046,1.2536314608564023,0.5101614185932523,0.08541538696227424,0.968930965197065,0.007346580763515305,2.701931784049404,0.510161418593252,5.728187083417058,7.439010894213736,1.982312225420811,0.01634497549019608,0.00732421875,0.016876220703125,0.031524658203125,0.16278076171875,0.45135498046875,0.206634521484375,0.0529632568359375,0.0234375,0.019927978515625,0.0271759033203125,corduroy
2.213461138744715,1.0907427131391771,0.5598410767224113,0.11967021254538764,0.9398684549628098,0.014436586942770797,2.213461138744713,0.5598410767224118,5.11426422632621,6.6729268169920655,1.8691176733323287,0.04134497549019608,0.0182342529296875,0.0402374267578125,0.050048828125,0.16412353515625,0.2997589111328125,0.204925537109375,0.0841522216796875,0.0429229736328125,0.03729248046875,0.0583038330078125,corduroy
2.9550634671760863,1.2357078707708586,0.5348258167801345,0.11153818586601066,0.9544140507404494,0.012617333049445224,2.955063467176086,0.5348258167801345,5.398810777225364,7.061511846472715,2.0124150435317527,0.04652267156862745,0.0185699462890625,0.041595458984375,0.0483551025390625,0.147369384765625,0.33099365234375,0.2010345458984375,0.0754241943359375,0.044952392578125,0.0364837646484375,0.0552215576171875,corduroy
11.740485390234543,2.635958225201846,0.31456879543582533,0.05777216781028906,0.8927840118854775,0.003356694626583618,11.740485390234525,0.3145687954358245,5.858499282994606,8.619720305559092,2.911186457253393,0.008655024509803922,0.0200958251953125,0.03570556640625,0.06121826171875,0.1918487548828125,0.3155364990234375,0.187164306640625,0.073883056640625,0.0391082763671875,0.0276947021484375,0.0477447509765625,corduroy
5.0863577259948185,1.6879264435553643,0.4365893413906847,0.08477667024028748,0.9116094764119729,0.00725021078299628,5.08635772599481,0.4365893413906845,5.400444910361533,7.553807527684803,2.36608832015275,0.018627450980392157,0.027984619140625,0.049102783203125,0.06298828125,0.1669158935546875,0.2725067138671875,0.1736602783203125,0.0854644775390625,0.0519561767578125,0.0411224365234375,0.06829833984375,corduroy
10.013189443363139,2.306817735366204,0.3676585705315762,0.06884172946716262,0.9221397052651705,0.004799749675903443,10.01318944336313,0.3676585705315758,5.851290370955075,8.353049900804123,2.7523921674195053,0.014598651960784314,0.02764892578125,0.049346923828125,0.061553955078125,0.1582794189453125,0.3028411865234375,0.1708221435546875,0.07452392578125,0.053375244140625,0.0377349853515625,0.063873291015625,corduroy
24.761028780997755,3.848778925173015,0.23118623580720515,0.0453662757701291,0.8141751248130265,0.002069455823862217,24.76102878099769,0.23118623580720504,5.980146624783227,9.275183895797985,3.406253492698447,0.00470281862745098,0.0329742431640625,0.0503997802734375,0.0792999267578125,0.175323486328125,0.2508087158203125,0.1633758544921875,0.0831298828125,0.0550079345703125,0.039764404296875,0.069915771484375,corduroy
2.8998975904700113,1.200143259203191,0.5448085338163544,0.10527692025857968,0.9429859635970594,0.011191677526544526,2.8998975904700113,0.5448085338163544,5.271004272804322,6.962107933766581,2.0016418722475855,0.030698529411764704,0.017181396484375,0.037841796875,0.0494232177734375,0.1601104736328125,0.316741943359375,0.2030487060546875,0.0817718505859375,0.042083740234375,0.03546142578125,0.05633544921875,corduroy
2.952951644199347,1.183884788903307,0.5562976203020165,0.11324051874276594,0.9553542154963924,0.013040327979501696,2.9529516441993464,0.556297620302016,5.369196753016648,6.9904950721591455,1.9815140068494386,0.051455269607843135,0.016937255859375,0.0398406982421875,0.0431365966796875,0.1428985595703125,0.3408355712890625,0.2051544189453125,0.0726165771484375,0.04541015625,0.0381317138671875,0.0550384521484375,corduroy
15.575616439590544,3.031620380382547,0.2830147120655522,0.04889865391067552,0.9000222914229582,0.002405732561582533,15.575616439590544,0.28301471206555207,6.119702046609158,9.078024664253755,3.0980821615352463,0.0057444852941176475,0.020477294921875,0.0341796875,0.0608367919921875,0.192230224609375,0.325958251953125,0.182342529296875,0.07073974609375,0.0393829345703125,0.027587890625,0.0462646484375,corduroy
3.59161598003172,1.4004116956218784,0.4905806242967005,0.11560962995350821,0.8668060482648808,0.013461339241324352,3.591615980031719,0.4905806242967007,4.8656348463971195,6.774010322730664,2.1582845838360827,0.03650428921568628,0.0313568115234375,0.0596466064453125,0.06671142578125,0.1580963134765625,0.22955322265625,0.1665496826171875,0.0914764404296875,0.0618743896484375,0.0514373779296875,0.0832977294921875,corduroy
6.900099195621884,1.8958030114619375,0.42222130930048407,0.09002872143241304,0.9098378021765712,0.008211829566190385,6.900099195621875,0.42222130930048374,5.487874922159828,7.740821542353348,2.5205156602962635,0.03261335784313726,0.0310516357421875,0.059326171875,0.062652587890625,0.145355224609375,0.272369384765625,0.1665191650390625,0.0803070068359375,0.0610809326171875,0.045135498046875,0.076202392578125,corduroy
27.62783640907344,4.068527128988846,0.22106863841216878,0.04434048674346372,0.8056045743709904,0.0019749081679314006,27.627836409073435,0.22106863841216884,6.02199362047288,9.399781374681764,3.4867855592313366,0.005147058823529412,0.03448486328125,0.0515899658203125,0.080322265625,0.1761016845703125,0.2371978759765625,0.1638946533203125,0.0861358642578125,0.055694580078125,0.0410003662109375,0.073577880859375,corduroy
6.0042507539167635,1.8437895731209157,0.41149697431373783,0.08431690200558796,0.8853401378645552,0.007183565706957646,6.004250753916763,0.4114969743137372,5.339549201945737,7.608419964955685,2.4644930991258454,0.02221200980392157,0.0318145751953125,0.0582275390625,0.0684661865234375,0.1588287353515625,0.2495880126953125,0.1640472412109375,0.0857391357421875,0.06005859375,0.04559326171875,0.07763671875,corduroy
12.327682261630159,2.5915080738177605,0.3409752961720962,0.0672194776164206,0.9121552223870646,0.004589442917555493,12.327682261630141,0.34097529617209593,5.844921896249675,8.452881956850637,2.881956008403625,0.015747549019607843,0.0304107666015625,0.0540618896484375,0.0618743896484375,0.1518707275390625,0.302001953125,0.1632843017578125,0.068695068359375,0.06085205078125,0.039276123046875,0.0676727294921875,corduroy
28.523221372188672,4.132977385500768,0.21841518140920702,0.043935409968969816,0.7950496030436439,0.00193983907847501,28.52322137218858,0.21841518140920674,5.995081435001635,9.390249303966721,3.503471867685124,0.004901960784313725,0.0354461669921875,0.054168701171875,0.0803070068359375,0.17425537109375,0.2374267578125,0.1575927734375,0.08502197265625,0.05914306640625,0.0418701171875,0.07476806640625,corduroy
5.033927485822763,1.5946684268069986,0.46634167351825,0.09193961503864453,0.8973912073063978,0.008537713822147307,5.03392748582276,0.46634167351824996,5.272372485297283,7.355603515117315,2.3225027677712076,0.022120098039215687,0.0263824462890625,0.0489501953125,0.0615386962890625,0.1629638671875,0.270477294921875,0.1823577880859375,0.085540771484375,0.0521697998046875,0.0409698486328125,0.0686492919921875,corduroy
4.511012320982316,1.4715358876393716,0.49747924393540116,0.10126428236254335,0.9205741681987261,0.01043617370561424,4.511012320982314,0.49747924393540055,5.313553423891446,7.246053605994609,2.2272971884053057,0.04010416666666667,0.025848388671875,0.05352783203125,0.056427001953125,0.1450042724609375,0.286468505859375,0.1817474365234375,0.079986572265625,0.056396484375,0.04498291015625,0.069610595703125,corduroy
28.223604007473135,4.102871777080933,0.2215440076061252,0.04126584454125881,0.8374264830923881,0.0017121915660071956,28.223604007473085,0.22154400760612503,6.166606775002964,9.548578516558344,3.5025608838054456,0.004794730392156863,0.031219482421875,0.048248291015625,0.0734100341796875,0.181732177734375,0.259735107421875,0.169403076171875,0.080780029296875,0.0509033203125,0.03759765625,0.0669708251953125,corduroy
3.114140715109576,1.3001151299980787,0.511366896168151,0.12591814680754632,0.8543604059858811,0.015979625772627737,3.1141407151095732,0.5113668961681507,4.698176684033863,6.500910676424456,2.0699953927391546,0.04296875,0.0314178466796875,0.0593414306640625,0.0639801025390625,0.15606689453125,0.2294158935546875,0.1683349609375,0.0931396484375,0.0621185302734375,0.0529327392578125,0.083251953125,corduroy
5.294861021001544,1.6646530180699748,0.4542406642082792,0.10549842782619781,0.8820235321749312,0.011273352864915064,5.294861021001537,0.4542406642082789,5.147009575468144,7.2356585869764185,2.3629212342144057,0.04071691176470588,0.0299835205078125,0.058624267578125,0.061767578125,0.147125244140625,0.266754150390625,0.1710662841796875,0.0803985595703125,0.061798095703125,0.0468597412109375,0.07562255859375,corduroy
29.079447808535214,4.183589725105732,0.2154556830824229,0.04515406846722954,0.7751095086542917,0.002047445298821467,29.079447808535175,0.21545568308242286,5.943389778736595,9.360412103838065,3.5221195328722943,0.005575980392156863,0.035888671875,0.052886962890625,0.082855224609375,0.1735076904296875,0.22979736328125,0.16485595703125,0.08599853515625,0.0565338134765625,0.0419769287109375,0.0756988525390625,corduroy
4.864877210688203,1.657903360486353,0.4398360831408954,0.09732084037570386,0.866641852905281,0.009591285608211476,4.8648772106881975,0.4398360831408951,5.075950222922131,7.190752592135437,2.326749227487114,0.02777267156862745,0.03179931640625,0.058441162109375,0.0660400390625,0.156524658203125,0.25018310546875,0.165008544921875,0.085174560546875,0.061004638671875,0.0478363037109375,0.0779876708984375,corduroy
13.601574139153218,2.6714275609140685,0.34357678415971726,0.07166981254653114,0.8904045083503092,0.005217103401573637,13.60157413915321,0.3435767841597168,5.739432467860515,8.32327769779273,2.922201089708728,0.017723651960784313,0.030303955078125,0.0536041259765625,0.0626983642578125,0.1486358642578125,0.3092193603515625,0.16033935546875,0.064849853515625,0.06121826171875,0.0409088134765625,0.0682220458984375,corduroy
29.12604507581232,4.1940276125769,0.21501565560882296,0.0447212013367671,0.7711757798956699,0.0020094853186477363,29.126045075812186,0.21501565560882224,5.920798426893488,9.332894911518595,3.51984882648607,0.005269607843137255,0.0369720458984375,0.0528564453125,0.0807647705078125,0.17236328125,0.238494873046875,0.1580047607421875,0.0842437744140625,0.0583953857421875,0.0427093505859375,0.0751953125,corduroy
5.179459883218003,1.5961165176855077,0.4698848961724694,0.09423390679087708,0.88961003999394,0.009003613592480834,5.179459883217993,0.46988489617246904,5.230403260014125,7.302968481254288,2.317536950172591,0.02421875,0.02728271484375,0.0510711669921875,0.061370849609375,0.1584930419921875,0.27618408203125,0.1740264892578125,0.0807647705078125,0.054962158203125,0.04486083984375,0.07098388671875,corduroy
4.751285187788355,1.5220761696222629,0.4855246801380675,0.09820737407172472,0.9038639203457807,0.009835923914770924,4.751285187788351,0.48552468013806716,5.259526498623526,7.2471417770917785,2.2561667589054815,0.033409926470588235,0.0256195068359375,0.050323486328125,0.05718994140625,0.148040771484375,0.2910003662109375,0.185150146484375,0.0810394287109375,0.0526580810546875,0.042633056640625,0.06634521484375,corduroy
34.53359546208195,4.552063779555941,0.20273493177504437,0.03960353703578761,0.7982222111111693,0.0015763874388747003,34.53359546208189,0.20273493177504368,6.140593197878502,9.664938707118047,3.6411933116244213,0.003952205882352941,0.033538818359375,0.0479736328125,0.079071044921875,0.1818389892578125,0.250701904296875,0.1585845947265625,0.081390380859375,0.0559844970703125,0.0399169921875,0.0709991455078125,corduroy
3.300530985678586,1.34595492118416,0.49995245238676317,0.12240479739663572,0.851616927718353,0.015123147303636137,3.300530985678585,0.4999524523867632,4.72534333718669,6.566942846255699,2.0988023102316626,0.04019607843137255,0.029998779296875,0.057373046875,0.0655517578125,0.15594482421875,0.2429046630859375,0.16796875,0.08984375,0.0604248046875,0.0502777099609375,0.0797119140625,corduroy
7.005681468665905,1.9024860630526728,0.42429870816487697,0.0975860870409411,0.8758022577706517,0.00967489194502078,7.005681468665898,0.42429870816487647,5.265138945458617,7.491488507492882,2.515573586794984,0.037791053921568625,0.0297088623046875,0.0530853271484375,0.062835693359375,0.1451568603515625,0.289642333984375,0.169586181640625,0.07476806640625,0.0596771240234375,0.04339599609375,0.0721435546875,corduroy
33.031840608179664,4.462498798539027,0.20503715525484353,0.044190073796907536,0.7403099668565694,0.0019608652434689655,33.03184060817954,0.20503715525484328,5.916603748385671,9.423340354770898,3.609808766904197,0.0049479166666666664,0.0396728515625,0.0544586181640625,0.082611083984375,0.1718902587890625,0.2209625244140625,0.15557861328125,0.0876312255859375,0.0594482421875,0.045013427734375,0.082733154296875,corduroy
5.470681979286824,1.7581867550941959,0.42526397596708493,0.09406303664363114,0.8544530137529067,0.008998417416389428,5.470681979286814,0.4252639759670846,5.089776920178389,7.275108768701413,2.3891991603638476,0.027006740196078433,0.0305328369140625,0.0543365478515625,0.0652313232421875,0.15771484375,0.267120361328125,0.165191650390625,0.08001708984375,0.05828857421875,0.0462799072265625,0.075286865234375,corduroy
16.999627682261654,2.9545918486880076,0.3300465589579831,0.07027221130695645,0.8634407473409921,0.005030412692744406,16.99962768226163,0.3300465589579825,5.7339664393827166,8.391268312895916,3.0394999040170383,0.01878063725490196,0.0309600830078125,0.052703857421875,0.060943603515625,0.1514739990234375,0.314361572265625,0.1573333740234375,0.0584259033203125,0.0638580322265625,0.0411529541015625,0.06878662109375,corduroy
32.41801111651776,4.438511494977899,0.2048300919852838,0.04330585229948626,0.7519403159571206,0.0018842993107385927,32.418011116517675,0.20483009198528326,5.9333767343415325,9.420495633257405,3.593992595053426,0.004810049019607843,0.038482666015625,0.0549468994140625,0.0799407958984375,0.169525146484375,0.235626220703125,0.1526641845703125,0.083526611328125,0.0609130859375,0.0450439453125,0.0793304443359375,corduroy
6.7479523200211435,1.8552245230199929,0.42779597752492815,0.08731087982236968,0.8709659213348065,0.00776198898546457,6.747952320021145,0.42779597752492793,5.279141072036882,7.52980593434102,2.480937626489582,0.022319240196078432,0.0278472900390625,0.050628662109375,0.0595550537109375,0.1609344482421875,0.2864227294921875,0.1745758056640625,0.073394775390625,0.05743408203125,0.0421295166015625,0.06707763671875,corduroy
6.2337637867647135,1.7725037245290287,0.4446050232590625,0.09134986135171935,0.8868376908013258,0.008579067080179243,6.233763786764706,0.44460502325906237,5.298502306352875,7.456986901131076,2.4142524163224923,0.03167892156862745,0.0258026123046875,0.0522918701171875,0.050750732421875,0.140167236328125,0.316314697265625,0.1819915771484375,0.070098876953125,0.0528564453125,0.0414276123046875,0.06829833984375,corduroy
37.25342296232225,4.772351619569394,0.19200903830392588,0.03899122449117609,0.7726596559424781,0.0015284077120268117,37.253422962322176,0.1920090383039258,6.1036143897604624,9.683087347452227,3.6932026554792428,0.004028799019607844,0.0337371826171875,0.0515594482421875,0.078857421875,0.179229736328125,0.25079345703125,0.1562652587890625,0.082061767578125,0.05694580078125,0.040374755859375,0.0701751708984375,corduroy
3.499494575403693,1.3973999783737037,0.4879198191307643,0.12018013511119327,0.846389937547859,0.014629039437548973,3.4994945754036912,0.48791981913076427,4.739716760309707,6.6165204892706475,2.127457221024273,0.043167892156862744,0.0297393798828125,0.0559844970703125,0.061737060546875,0.1558685302734375,0.2555389404296875,0.171630859375,0.0847320556640625,0.05902099609375,0.0493011474609375,0.076446533203125,corduroy
6.129517838691858,1.8120276906718593,0.4300803147772854,0.1030786865946872,0.8541342945251188,0.010814543417110748,6.129517838691849,0.4300803147772848,5.1075018319059975,7.267346910119169,2.4380655567363867,0.040303308823529414,0.028167724609375,0.05609130859375,0.0612945556640625,0.1443023681640625,0.2899932861328125,0.170562744140625,0.072967529296875,0.0612030029296875,0.0428619384765625,0.0725555419921875,corduroy
31.552665771578315,4.367641862504809,0.20844921410808678,0.046095406614563184,0.7179689131768063,0.002133694104220585,31.55266577157824,0.2084492141080865,5.81792593867203,9.294141913926078,3.579898376549201,0.005652573529411765,0.0389556884765625,0.0572357177734375,0.0848388671875,0.1704254150390625,0.2195281982421875,0.1502227783203125,0.0874786376953125,0.0613861083984375,0.0464630126953125,0.083465576171875,corduroy
4.725728701100542,1.6342893208141112,0.44490966922800246,0.10510935263998605,0.8366276396070969,0.011302175607286495,4.7257287011005396,0.44490966922800257,4.890725831249922,6.954248916764629,2.2835975192875737,0.03412990196078431,0.0281829833984375,0.055572509765625,0.059722900390625,0.1487884521484375,0.2843780517578125,0.17132568359375,0.07452392578125,0.059539794921875,0.045440673828125,0.0725250244140625,corduroy
19.410571459895216,3.1425434177960367,0.3239793118402526,0.07149210861914711,0.8345266899613388,0.005223901233100448,19.41057145989523,0.3239793118402526,5.681904424752877,8.377097746810147,3.1015854223610093,0.02035845588235294,0.0306243896484375,0.0526275634765625,0.0615997314453125,0.1464996337890625,0.3214569091796875,0.154388427734375,0.0543212890625,0.0682373046875,0.0413818359375,0.0688629150390625,corduroy
38.284337964965474,4.824474601114955,0.19101494109301945,0.04191815917577136,0.7093074900302069,0.001764361466958075,38.28433796496539,0.1910149410930191,5.925169438745611,9.5318838248456,3.7115079711890755,0.004825367647058824,0.040130615234375,0.057281494140625,0.084564208984375,0.169525146484375,0.219268798828125,0.1466217041015625,0.0849609375,0.0644073486328125,0.0482635498046875,0.0849761962890625,corduroy
8.3420979310842,2.091091707516339,0.3943696696477595,0.08519403156593422,0.8428984990538858,0.007401415973784921,8.342097931084199,0.394369669647759,5.259054061946255,7.637751676071067,2.6088586421773305,0.02345281862745098,0.0284271240234375,0.0462493896484375,0.059295654296875,0.1627960205078125,0.30181884765625,0.17120361328125,0.06640625,0.056488037109375,0.0409088134765625,0.06640625,corduroy
7.618908547794122,1.9645115610582455,0.4203999757856018,0.09120026037471515,0.8654575645931983,0.008570846888646627,7.618908547794117,0.42039997578560157,5.27861911971952,7.526250528626987,2.523621629687468,0.03435968137254902,0.0252685546875,0.050689697265625,0.052276611328125,0.1415557861328125,0.3281097412109375,0.180419921875,0.06427001953125,0.0537109375,0.039825439453125,0.063873291015625,corduroy
36.83926746924266,4.7654397947904625,0.19169212345265743,0.04081174984673852,0.733720043996288,0.0016744215073548258,36.8392674692426,0.1916921234526573,5.968998827088325,9.542581088925818,3.685886286617892,0.003967524509803921,0.0365142822265625,0.052642822265625,0.080230712890625,0.1746673583984375,0.2440338134765625,0.1514739990234375,0.08123779296875,0.0615081787109375,0.0419464111328125,0.07574462890625,corduroy
3.508474189614573,1.405143469458865,0.48492068980606046,0.12127451888697452,0.8408498782882063,0.01498169175798762,3.5084741896145717,0.48492068980606007,4.7057722443887915,6.567612743921315,2.1115522694005504,0.04589460784313725,0.0269775390625,0.0506744384765625,0.0590057373046875,0.155975341796875,0.279052734375,0.1770477294921875,0.079132080078125,0.0579833984375,0.0443878173828125,0.06976318359375,corduroy
9.352570330521925,2.228046079032103,0.38761103967505645,0.09336205696435623,0.8328187849179791,0.008939955692972795,9.352570330521914,0.3876110396750565,5.250248656446876,7.593818037571567,2.6678312592447178,0.03619791666666667,0.029327392578125,0.054229736328125,0.0574798583984375,0.141265869140625,0.31396484375,0.1656646728515625,0.0623626708984375,0.0644073486328125,0.041748046875,0.069549560546875,corduroy
26.209225523236285,3.993902089941373,0.22374056551912042,0.05099023169225357,0.7017861795052577,0.002611013672116815,26.209225523236253,0.22374056551912033,5.637106895085294,8.979978827270372,3.4553826133453382,0.006617647058823529,0.038604736328125,0.0569610595703125,0.085479736328125,0.1727142333984375,0.2197113037109375,0.1451568603515625,0.08258056640625,0.0665740966796875,0.0489349365234375,0.083282470703125,corduroy
5.652420072808537,1.8001122164552112,0.41810792799040297,0.09900532541372391,0.8206604092006362,0.010120730785494591,5.652420072808535,0.418107927990403,4.936245821102769,7.098849217910266,2.369721840305647,0.033900122549019605,0.02691650390625,0.052459716796875,0.0563201904296875,0.149627685546875,0.309539794921875,0.1694488525390625,0.06500244140625,0.059478759765625,0.0431365966796875,0.0680694580078125,corduroy
25.921016916570537,3.5886283220395985,0.30744121821059767,0.06842829073576027,0.7967955686692251,0.0048208544919364224,25.92101691657054,0.3074412182105978,5.725043936295181,8.53588180057803,3.244125075122187,0.020542279411764706,0.0314483642578125,0.054290771484375,0.060699462890625,0.1460418701171875,0.3238067626953125,0.1534881591796875,0.046630859375,0.0729217529296875,0.04217529296875,0.0684967041015625,corduroy
37.10333304798637,4.801125483588036,0.18762318775709802,0.04390639518170921,0.6593104702894403,0.0019360695629088214,37.10333304798635,0.1876231877570978,5.770689044408586,9.360118532579275,3.6877180655110964,0.004656862745098039,0.04266357421875,0.058502197265625,0.0835113525390625,0.169219970703125,0.221710205078125,0.13763427734375,0.07806396484375,0.07281494140625,0.049072265625,0.0868072509765625,corduroy
9.016250330401768,2.161026948769705,0.391042237128977,0.08576451031048885,0.8245740305693292,0.007602237678959427,9.01625033040177,0.3910422371289772,5.242084051466012,7.619192237638661,2.6222326868417625,0.0258578431372549,0.0262451171875,0.0477752685546875,0.05316162109375,0.1551666259765625,0.32427978515625,0.17620849609375,0.05645751953125,0.060211181640625,0.038421630859375,0.06207275390625,corduroy
8.867218948241076,2.1371796003940804,0.3995734822787776,0.08931897691360643,0.8370003733772354,0.0083045622507512,8.86721894824106,0.3995734822787773,5.238099858868306,7.551355663311902,2.595279359354403,0.03475796568627451,0.0246734619140625,0.0522918701171875,0.0474090576171875,0.137908935546875,0.343994140625,0.1786041259765625,0.05572509765625,0.0581207275390625,0.0386810302734375,0.062591552734375,corduroy
41.43699236771923,5.0779161710640075,0.17993111268565382,0.04043495987205727,0.6866132654732396,0.0016438378910865637,41.43699236771914,0.17993111268565332,5.920820272836229,9.579244808671177,3.765251633319238,0.004549632352941177,0.040863037109375,0.056427001953125,0.0842132568359375,0.167327880859375,0.2300872802734375,0.143890380859375,0.0790557861328125,0.06854248046875,0.046356201171875,0.0832366943359375,corduroy
4.085879499471355,1.5291405949634775,0.460378406243245,0.11625157366408019,0.8205807200361901,0.013849417326021395,4.085879499471358,0.46037840624324466,4.725321446568486,6.6821259309571435,2.1880686469800406,0.04436274509803922,0.0283355712890625,0.0507049560546875,0.05731201171875,0.1522064208984375,0.2858734130859375,0.1781158447265625,0.074066162109375,0.0561676025390625,0.0454864501953125,0.0717315673828125,corduroy
14.57458819925031,2.736364168829297,0.35509303899553846,0.08501515374713887,0.7972533115591085,0.007468109301827183,14.574588199250288,0.35509303899553807,5.375430792886704,7.902957620290667,2.906389275239592,0.032981004901960785,0.031524658203125,0.058868408203125,0.054168701171875,0.140869140625,0.3111724853515625,0.1608734130859375,0.0507049560546875,0.07232666015625,0.0440216064453125,0.075469970703125,corduroy
32.723245897010806,4.496099847414459,0.20013589762748057,0.04753797734883581,0.6536292370767866,0.0022698294657540114,32.72324589701076,0.20013589762748035,5.671428109404962,9.171918582801622,3.604827996860119,0.0058363970588235295,0.04266357421875,0.064117431640625,0.0883636474609375,0.1652679443359375,0.20721435546875,0.1289215087890625,0.07763671875,0.07733154296875,0.0548095703125,0.0936737060546875,corduroy
5.8844041804834735,1.8476195603854284,0.4098177600368703,0.10119288954692543,0.7954252095652631,0.010663368887475665,5.884404180483468,0.4098177600368705,4.864141690556873,7.033086915947599,2.3705249299180258,0.03569240196078431,0.0264434814453125,0.051788330078125,0.0534210205078125,0.145965576171875,0.322021484375,0.17266845703125,0.0572662353515625,0.0618896484375,0.0426025390625,0.0659332275390625,corduroy
38.78956823997987,4.4492544183727425,0.2699721056393448,0.05939690482425396,0.7631248501311709,0.0036728220776908425,38.78956823997981,0.2699721056393445,5.870264526288736,8.891682889409477,3.4698664016756307,0.016467524509803922,0.0333099365234375,0.05718994140625,0.057861328125,0.1420440673828125,0.327606201171875,0.15313720703125,0.037933349609375,0.0758056640625,0.04296875,0.0721435546875,corduroy
39.607010885236605,4.957465187668202,0.18335314126453572,0.043523606803025194,0.6494052785406127,0.0019033753410045654,39.60701088523644,0.18335314126453503,5.795705226460245,9.425085639559093,3.7345832188274235,0.005422794117647059,0.042236328125,0.0627899169921875,0.0880584716796875,0.1775665283203125,0.2053375244140625,0.122222900390625,0.0710906982421875,0.0833740234375,0.0553741455078125,0.091949462890625,corduroy
10.860090094554986,2.405394154291618,0.36314330617253443,0.08290904491366997,0.7915188119482646,0.00717622093752643,10.86009009455498,0.36314330617253443,5.232409125708694,7.699708567589248,2.719315855619852,0.02610294117647059,0.027099609375,0.048858642578125,0.052581787109375,0.153076171875,0.328765869140625,0.1790924072265625,0.04736328125,0.0637054443359375,0.0387420654296875,0.0607147216796875,corduroy
12.078048106497507,2.516093179306034,0.3655518975018593,0.08480774216479339,0.8012802208307588,0.007536129705618667,12.0780481064975,0.36555189750185957,5.287154307419823,7.7272252503755965,2.768183173007956,0.03215379901960784,0.0263671875,0.0534820556640625,0.0479736328125,0.1387786865234375,0.3416748046875,0.1771240234375,0.046356201171875,0.0634613037109375,0.039276123046875,0.0655059814453125,corduroy
40.98941156946857,5.079069153090157,0.17894169982271488,0.042154883310493246,0.6509318915317102,0.0017889384041333977,40.98941156946847,0.17894169982271457,5.817516084733207,9.458100100514233,3.7503193502154755,0.0041590073529411764,0.042694091796875,0.066436767578125,0.0806427001953125,0.164520263671875,0.2207794189453125,0.135162353515625,0.0692138671875,0.0790557861328125,0.05126953125,0.0902252197265625,corduroy
5.098743827494232,1.7194005460640136,0.4283467825352961,0.10816948209674723,0.798264437808637,0.012144535795808025,5.098743827494233,0.42834678253529634,4.776934164215567,6.854263565319472,2.2913365370968233,0.03961397058823529,0.0263214111328125,0.0479888916015625,0.0536346435546875,0.1517181396484375,0.3126068115234375,0.184051513671875,0.0587005615234375,0.0564117431640625,0.0429534912109375,0.06561279296875,corduroy
16.87487216455211,2.9516979647251054,0.3453730552092234,0.08383326549351369,0.7612268927780442,0.007354558289449966,16.874872164552094,0.34537305520922323,5.3466052683960745,7.897739676737344,2.9615754130533514,0.03397671568627451,0.0311431884765625,0.05914306640625,0.0518951416015625,0.136016845703125,0.32318115234375,0.1641998291015625,0.0419921875,0.07489013671875,0.0439605712890625,0.073577880859375,corduroy
37.27326885993379,4.792304507280853,0.19002153042379116,0.046763857130792535,0.6000335083309583,0.002195446493655547,37.27326885993368,0.19002153042379083,5.637381604388207,9.230404108525315,3.6958148896954204,0.005713848039215686,0.0501708984375,0.0749359130859375,0.090240478515625,0.15814208984375,0.172393798828125,0.11712646484375,0.07568359375,0.0894775390625,0.06402587890625,0.1078033447265625,corduroy
8.822362192426,2.2691177972414454,0.3614709149896582,0.08794823064451293,0.7666055437025224,0.0081957559012213,8.822362192425992,0.3614709149896578,5.033338518695958,7.4150765224279445,2.5838140326487267,0.028998161764705883,0.02789306640625,0.053924560546875,0.050140380859375,0.143829345703125,0.330841064453125,0.1758575439453125,0.043243408203125,0.064453125,0.043304443359375,0.0665130615234375,corduroy
51.035691170463295,5.071164666234127,0.259465702394181,0.05560219950093773,0.7101150936155703,0.003272444466440787,51.03569117046328,0.2594657023941811,5.917809839584096,9.086049159547628,3.604681505620443,0.015885416666666666,0.0361785888671875,0.06427001953125,0.0531005859375,0.136627197265625,0.3195343017578125,0.1535491943359375,0.03167724609375,0.082427978515625,0.046356201171875,0.0762786865234375,corduroy
31.848464247525055,4.455196604070551,0.2019290927153382,0.04956925077188883,0.6154171738642316,0.0024756404154522337,31.84846424752499,0.20192909271533802,5.554809057267278,9.018715491030433,3.5787873987756647,0.0070925245098039215,0.0467987060546875,0.07110595703125,0.08551025390625,0.1689910888671875,0.1873321533203125,0.1184539794921875,0.066802978515625,0.0916290283203125,0.06170654296875,0.1016693115234375,corduroy
12.909187211649364,2.6481328094963454,0.34246060481465773,0.08043069547059009,0.7555694546161213,0.0069552577960399955,12.909187211649366,0.3424606048146575,5.24312613155074,7.764813981010072,2.7742371547781834,0.029549632352941176,0.025360107421875,0.05419921875,0.04339599609375,0.1422271728515625,0.347900390625,0.1870880126953125,0.03558349609375,0.0660400390625,0.0382537841796875,0.0599517822265625,corduroy
15.547873143742802,2.882128027681661,0.3414392814068348,0.08145178912224908,0.7538237201307246,0.007119088111457121,15.547873143742793,0.34143928140683477,5.296871345120035,7.812227145643174,2.877731078126758,0.03517156862745098,0.02532958984375,0.0550384521484375,0.042694091796875,0.13385009765625,0.3585052490234375,0.182342529296875,0.0330810546875,0.06768798828125,0.0391082763671875,0.0623626708984375,corduroy
44.44472261269711,5.272996834150326,0.17598939116364,0.041831601157957796,0.622426984651067,0.001766139345660409,44.44472261269704,0.17598939116363968,5.812706880922416,9.502991449757015,3.7984073298066567,0.004526654411764706,0.04833984375,0.07061767578125,0.0826263427734375,0.16058349609375,0.1983795166015625,0.1268768310546875,0.0613555908203125,0.08990478515625,0.0583343505859375,0.1029815673828125,corduroy
1.1099293540945787,0.7895591539311804,0.6372297635100752,0.1949859580608705,0.8696007834916961,0.038599822769925164,1.109929354094579,0.6372297635100753,4.024237951052857,5.075616452218871,1.4075496003640227,0.10177696078431372,0.0097503662109375,0.0268707275390625,0.0321197509765625,0.1517791748046875,0.3697357177734375,0.23028564453125,0.0702056884765625,0.0341796875,0.0330963134765625,0.0419769287109375,cotton
2.5276714634996162,1.2525662455545938,0.4992461342928798,0.136803128430317,0.8709963765499296,0.01942910005752332,2.5276714634996154,0.4992461342928797,4.603203896805294,6.072118331810178,1.7585092952747414,0.059267769607843135,0.010528564453125,0.0306549072265625,0.0314178466796875,0.12603759765625,0.4378662109375,0.216827392578125,0.048370361328125,0.0356292724609375,0.0253448486328125,0.037322998046875,cotton
3.0060843786043847,1.3450119545367172,0.4842837285059174,0.11179329669333048,0.8906944209365804,0.012564390783587674,3.006084378604383,0.4842837285059174,4.891914529863556,6.692125003103486,2.0347809612119656,0.028247549019607843,0.0101776123046875,0.020751953125,0.03802490234375,0.2136688232421875,0.3738555908203125,0.1780853271484375,0.0712890625,0.03338623046875,0.0269012451171875,0.0338592529296875,cotton
4.456257073601499,1.6485826515042306,0.4241212030337962,0.11121365525267014,0.7898782215756583,0.012492891724153021,4.456257073601499,0.4241212030337963,4.661763275768003,6.7177937069454,2.2496292564469846,0.03216911764705882,0.0176239013671875,0.0340118408203125,0.053558349609375,0.1793365478515625,0.3210296630859375,0.215362548828125,0.075103759765625,0.0341796875,0.024688720703125,0.04510498046875,cotton
11.987044841527311,2.7251140637014615,0.3010867822749525,0.07058085405582512,0.7848707430852996,0.005175638586864407,11.987044841527297,0.30108678227495234,5.345307102081931,8.005498940447751,2.804390895457473,0.017708333333333333,0.0204315185546875,0.04827880859375,0.050811767578125,0.1522369384765625,0.37481689453125,0.167388916015625,0.056884765625,0.05499267578125,0.0265960693359375,0.0475616455078125,cotton
15.359853136413907,3.01768549055652,0.28401608788464794,0.0659214888853234,0.7442733084641091,0.004375297335634264,15.359853136413879,0.2840160878846477,5.382181371457014,8.317972349285562,3.08190554474717,0.013556985294117647,0.022857666015625,0.03912353515625,0.068450927734375,0.2189178466796875,0.2752685546875,0.1460723876953125,0.0857696533203125,0.0510406494140625,0.0376739501953125,0.0548248291015625,cotton
1.7775616950211464,1.021078311226452,0.5640050654686475,0.1609684404193067,0.853262679769733,0.026393571295591486,1.7775616950211457,0.5640050654686475,4.279478151821827,5.641330948992108,1.6607634935501545,0.07435661764705882,0.012115478515625,0.0280303955078125,0.0363311767578125,0.163116455078125,0.383087158203125,0.202178955078125,0.06646728515625,0.0400848388671875,0.030059814453125,0.0385284423828125,cotton
1.3597866505670901,0.8761287125144179,0.6100987697964537,0.1936458995415852,0.8322624225829859,0.0386066403145947,1.3597866505670897,0.6100987697964535,3.9686579695046182,5.122236198406904,1.4874883571405428,0.11557904411764706,0.01312255859375,0.036041259765625,0.0323638916015625,0.12957763671875,0.363189697265625,0.2330322265625,0.0620574951171875,0.0420074462890625,0.0388031005859375,0.0498046875,cotton
3.319126012230874,1.4022634773885048,0.4755302502815641,0.10880776045487842,0.8876403021514196,0.011914615014306665,3.319126012230873,0.4755302502815641,4.9451303840378085,6.816702168183301,2.1001656747855146,0.030330882352941176,0.012451171875,0.0234222412109375,0.0403900146484375,0.212921142578125,0.357879638671875,0.1754913330078125,0.07427978515625,0.0371246337890625,0.0285186767578125,0.0375213623046875,cotton
9.374788828215117,2.439160163759131,0.3149692833502467,0.08078211499545854,0.7409592975187185,0.006585267768282227,9.37478882821511,0.31496928335024665,5.0190587033325045,7.611501694667071,2.7259470353775486,0.016927083333333332,0.022369384765625,0.036529541015625,0.065277099609375,0.209625244140625,0.2776031494140625,0.1799774169921875,0.08203125,0.0442657470703125,0.0309295654296875,0.0513916015625,cotton
19.09311810661764,3.4323489613369844,0.2559409997806535,0.0603653611613667,0.7676624433264324,0.0037887566036021707,19.093118106617645,0.25594099978065343,5.542188767302894,8.453774783282736,3.0992301881450506,0.013939950980392158,0.0216827392578125,0.0438232421875,0.04962158203125,0.1559600830078125,0.3842315673828125,0.16705322265625,0.05194091796875,0.0477447509765625,0.0289459228515625,0.0489959716796875,cotton
27.654530363922543,4.13979441500866,0.21261735581522334,0.04743613081953313,0.7458676843575764,0.002261361503914171,27.654530363922525,0.2126173558152232,5.816083113169482,9.197202310225501,3.4851586382626136,0.005575980392156863,0.0230560302734375,0.041046142578125,0.0722503662109375,0.219512939453125,0.2691192626953125,0.1518707275390625,0.080902099609375,0.0547332763671875,0.0332489013671875,0.05426025390625,cotton
17.649718647875822,3.3295112757112646,0.24849431800706423,0.06319102865108345,0.6713513023960243,0.004023204479054614,17.64971864787582,0.24849431800706429,5.272754261774031,8.321061544621804,3.159074923643267,0.010416666666666666,0.0299530029296875,0.04400634765625,0.0744476318359375,0.196136474609375,0.24249267578125,0.1804962158203125,0.0894775390625,0.0479583740234375,0.033355712890625,0.061676025390625,cotton
35.07951154604005,4.657546616685893,0.19849305724281466,0.04647682827660022,0.7075891465832206,0.0022527102110321113,35.07951154603998,0.19849305724281435,5.82818305648305,9.207616909686807,3.509426019369302,0.008440563725490196,0.0279083251953125,0.054656982421875,0.0522003173828125,0.1444244384765625,0.3689117431640625,0.15399169921875,0.048065185546875,0.0613861083984375,0.031463623046875,0.0569915771484375,cotton
27.969423163566976,4.089996230416188,0.22040299264981952,0.04992182476316435,0.7204784060136266,0.002504118065590674,27.969423163566894,0.22040299264981933,5.737855946884318,9.11370730938442,3.4924923310708333,0.006418504901960784,0.0274658203125,0.0434112548828125,0.072174072265625,0.2154083251953125,0.2525482177734375,0.146392822265625,0.0849151611328125,0.0555877685546875,0.03875732421875,0.0633392333984375,cotton
13.537462799764514,2.9188467626633985,0.2762372365288796,0.069744177637658,0.7102955009051275,0.004920556487062315,13.537462799764512,0.27623723652887955,5.1868199720186485,8.025623114862373,2.9650903676096485,0.013802083333333333,0.0236663818359375,0.038818359375,0.064208984375,0.2142181396484375,0.2762298583984375,0.1667938232421875,0.0796661376953125,0.0514984130859375,0.0319366455078125,0.0529632568359375,cotton
10.116805525519036,2.5177011245674756,0.3148231547841596,0.08342223586040712,0.7162995104427177,0.0071824372581874695,10.11680552551903,0.31482315478415956,4.980268108195476,7.520974735927366,2.6954943667214444,0.022135416666666668,0.02374267578125,0.0463104248046875,0.0549163818359375,0.163299560546875,0.335968017578125,0.1733245849609375,0.0640411376953125,0.0510101318359375,0.032135009765625,0.0552520751953125,cotton
29.510947276888697,4.2161730013696666,0.21295164355888868,0.047434203375840804,0.7381936703234147,0.002261175107157675,29.510947276888693,0.21295164355888846,5.833915835068132,9.250004136256127,3.5294341501309328,0.005805759803921569,0.023590087890625,0.036651611328125,0.0732421875,0.229156494140625,0.2643280029296875,0.147186279296875,0.0807342529296875,0.0554351806640625,0.0357513427734375,0.053924560546875,cotton
13.49207935349386,2.94887718966263,0.26980648273715385,0.07447049616398745,0.6458910548068785,0.005619255117867814,13.492079353493848,0.2698064827371538,5.002497647469053,7.818081665178271,2.9380438367286965,0.015364583333333333,0.030517578125,0.0472564697265625,0.0695953369140625,0.1958465576171875,0.2529449462890625,0.1614227294921875,0.0781402587890625,0.0563201904296875,0.0397186279296875,0.0682373046875,cotton
38.13145177035277,4.914637654387733,0.19267275690969635,0.04912781600105594,0.6720879113332485,0.0025299203181721355,38.13145177035275,0.19267275690969632,5.737368781233966,9.042824771115013,3.4987141991735897,0.009298406862745098,0.0303955078125,0.059906005859375,0.0462799072265625,0.14080810546875,0.3638458251953125,0.1525726318359375,0.0378875732421875,0.0678863525390625,0.0359039306640625,0.06451416015625,cotton
42.120655922601905,5.129351316200496,0.17591189126027712,0.0416672261369437,0.6593457441878758,0.0017429774729020514,42.120655922601884,0.17591189126027704,5.86873779571097,9.550177363801168,3.774912263461527,0.004090073529411765,0.0300750732421875,0.0477142333984375,0.082489013671875,0.221160888671875,0.2216644287109375,0.13873291015625,0.084442138671875,0.0647125244140625,0.041534423828125,0.067474365234375,cotton
19.188449379445416,3.5200500859044626,0.23466243120167424,0.06494836108308434,0.6007250626854612,0.004288743663551911,19.18844937944541,0.234662431201674,5.14633780224579,8.181963966982597,3.1520662119985694,0.011075367647058824,0.0357666015625,0.058135986328125,0.0687713623046875,0.1596527099609375,0.25933837890625,0.1731414794921875,0.0782470703125,0.0597076416015625,0.0366363525390625,0.0706024169921875,cotton
51.94032160106699,5.728991373510175,0.16874896639755663,0.04190822567878685,0.6284405421789155,0.00184259869537248,51.9403216010669,0.16874896639755638,5.901262491233291,9.485998055420403,3.72602960936858,0.006816789215686275,0.0350494384765625,0.0714263916015625,0.0488128662109375,0.1283416748046875,0.3460845947265625,0.139801025390625,0.042266845703125,0.0807952880859375,0.036712646484375,0.070709228515625,cotton
35.800267625432596,4.692601823817762,0.19197661232452895,0.04671317870115563,0.6419839298858874,0.002190398543390482,35.800267625432525,0.19197661232452912,5.704236073679713,9.261468372810889,3.664061721687566,0.005897671568627451,0.0324249267578125,0.0478973388671875,0.084686279296875,0.2194061279296875,0.209625244140625,0.133453369140625,0.08642578125,0.0663909912109375,0.0465087890625,0.07318115234375,cotton
21.363026134779897,3.7154540471212982,0.2250319840813557,0.06140388851914927,0.618722732987388,0.003850386232397838,21.363026134779894,0.2250319840813555,5.262579440391397,8.351455616037967,3.209159461910237,0.011596200980392157,0.03289794921875,0.0538330078125,0.06768798828125,0.1803131103515625,0.2655029296875,0.1584014892578125,0.0672454833984375,0.0674896240234375,0.038055419921875,0.068572998046875,cotton
16.9494028588764,3.293097020977508,0.25475621787992586,0.07194030205474902,0.6171639544114252,0.005362847865785217,16.949402858876397,0.2547562178799257,5.0811866885212895,7.933999977181253,2.993822952735281,0.01757046568627451,0.0332489013671875,0.0611724853515625,0.055328369140625,0.153594970703125,0.301971435546875,0.1588592529296875,0.0557098388671875,0.06695556640625,0.041168212890625,0.071990966796875,cotton
48.0449802059305,5.437812650182606,0.16794805313045386,0.04037535073910842,0.6455238686563521,0.0016388325579115943,48.04498020593041,0.1679480531304538,5.925113170508972,9.683631892473905,3.8610643442142027,0.004381127450980392,0.031005859375,0.044189453125,0.0827484130859375,0.2262115478515625,0.2178955078125,0.1347198486328125,0.0846710205078125,0.0672607421875,0.041748046875,0.069549560546875,cotton
15.14302747140522,3.1338689746732014,0.2600682627069554,0.07924180942506336,0.5354240028385712,0.006418479168866255,15.14302747140523,0.26006826270695527,4.819973001520232,7.628695225789529,2.952090812081975,0.019255514705882354,0.0389251708984375,0.067169189453125,0.06396484375,0.163421630859375,0.245269775390625,0.1502227783203125,0.0581207275390625,0.0729522705078125,0.05255126953125,0.08740234375,cotton
44.87382072099675,5.366332405204728,0.18857557341748282,0.05240073335608199,0.5543185362957093,0.0029157802550481577,44.87382072099673,0.18857557341748263,5.574856824422617,8.863763981316321,3.509839094961347,0.011871936274509803,0.0368499755859375,0.082916259765625,0.0393524169921875,0.12408447265625,0.332305908203125,0.140533447265625,0.0284576416015625,0.0938873291015625,0.0442962646484375,0.0773162841796875,cotton
49.772563106737785,5.602542351499412,0.16108297976849162,0.04142480329854961,0.5624249843297981,0.0017214303684989927,49.77256310673779,0.16108297976849156,5.763532154183335,9.560669043464664,3.889722658124551,0.004319852941176471,0.0376129150390625,0.054840087890625,0.0875701904296875,0.2241058349609375,0.1772918701171875,0.1206207275390625,0.0862579345703125,0.075469970703125,0.0520782470703125,0.0841522216796875,cotton
21.899073853806254,3.7699017505286436,0.223223262272307,0.06720545720540884,0.4826044487235275,0.004609517959813583,21.89907385380623,0.22322326227230685,5.000356269713537,8.09071693724744,3.202804841859048,0.012423406862745097,0.0448760986328125,0.081268310546875,0.0631103515625,0.130035400390625,0.2281341552734375,0.163299560546875,0.0749969482421875,0.0785675048828125,0.0445098876953125,0.0912017822265625,cotton
60.14243349913501,6.163746005142256,0.16784908834565315,0.043405560027821755,0.5201570690620455,0.0020081280767294332,60.142433499134945,0.16784908834565251,5.77787597789127,9.4137947367737,3.7632722732490063,0.008118872549019608,0.03948974609375,0.0988311767578125,0.042388916015625,0.110107421875,0.3145904541015625,0.1244964599609375,0.0354766845703125,0.104461669921875,0.045745849609375,0.08441162109375,cotton
41.99845417027112,5.109948427287576,0.17696672445739356,0.045322007538042275,0.5655360054263167,0.0020605118527308305,41.998454170271046,0.1769667244573935,5.6515553505971985,9.327268958746345,3.7745993743346284,0.004794730392156863,0.0415802001953125,0.056549072265625,0.090179443359375,0.21142578125,0.16815185546875,0.12115478515625,0.087066650390625,0.075531005859375,0.0562591552734375,0.09210205078125,cotton
22.89313961276914,3.854354590181659,0.21921165066358003,0.06542543303604641,0.4992232386514878,0.004377491273537808,22.893139612769126,0.21921165066358006,5.057452760151893,8.17015882855513,3.2314544271598464,0.01292892156862745,0.043212890625,0.071044921875,0.069732666015625,0.1566619873046875,0.2289276123046875,0.14556884765625,0.0605316162109375,0.085205078125,0.0499267578125,0.0891876220703125,cotton
16.928691563941754,3.2808304648452515,0.2611737246965351,0.08036682944850371,0.4934060910684316,0.006735081205590821,16.928691563941754,0.2611737246965349,4.821892251141037,7.631460952760793,2.959415960912626,0.02349877450980392,0.0406646728515625,0.0811309814453125,0.0529632568359375,0.1355438232421875,0.2651214599609375,0.148223876953125,0.0460052490234375,0.09002685546875,0.051971435546875,0.088348388671875,cotton
50.34997154039321,5.597259092055934,0.1629050427750492,0.0422549099819652,0.5500506341626077,0.0017923629359602473,50.34997154039311,0.16290504277504878,5.7431278266858,9.537791295955245,3.896063832659716,0.00470281862745098,0.0402069091796875,0.0539093017578125,0.0887298583984375,0.220794677734375,0.1704559326171875,0.11920166015625,0.0867767333984375,0.079925537109375,0.052825927734375,0.0871734619140625,cotton
16.492686616926186,3.257614979815455,0.25705145783808253,0.08249659898637082,0.4245756096160825,0.007004072813205334,16.492686616926182,0.2570514578380823,4.690199510223484,7.5358839206628065,2.9768873658584027,0.023238357843137256,0.047637939453125,0.0861358642578125,0.0608673095703125,0.14422607421875,0.2143402099609375,0.1337432861328125,0.046234130859375,0.0971221923828125,0.0638885498046875,0.105804443359375,cotton
44.183845110654616,5.289041008866785,0.19630851666276605,0.057259410370383894,0.40610422046840233,0.0035128483484579147,44.18384511065455,0.1963085166627659,5.312407836999336,8.604320960207636,3.473341163428222,0.013511029411764706,0.0452728271484375,0.1065521240234375,0.034423828125,0.1101837158203125,0.2808990478515625,0.13031005859375,0.0278167724609375,0.1136932373046875,0.0544281005859375,0.0964202880859375,cotton
37.45358654123423,4.872423316753175,0.1816074703044133,0.050099592997795886,0.48953450534177234,0.0025195391386349016,37.45358654123414,0.18160747030441288,5.421153739304965,9.017255704773138,3.6868233672546964,0.006403186274509804,0.04632568359375,0.0614471435546875,0.0933685302734375,0.20941162109375,0.1480560302734375,0.10614013671875,0.08172607421875,0.0890655517578125,0.06219482421875,0.102264404296875,cotton
22.17575741601788,3.75913253015667,0.22797843258618777,0.07307683257293997,0.33763639160964093,0.0054502099852665785,22.175757416017877,0.22797843258618763,4.7633060689934,7.871747118815354,3.208272158548188,0.015441176470588236,0.0561370849609375,0.1056060791015625,0.0595550537109375,0.109405517578125,0.1759033203125,0.144927978515625,0.0742340087890625,0.099853515625,0.05810546875,0.11627197265625,cotton
57.91889247825365,5.9493502048490985,0.1783260355622629,0.047300496215773716,0.41399231777798684,0.002392853682341098,57.91889247825355,0.17832603556226265,5.561122316725989,9.203751705424448,3.7440933521826314,0.009696691176470588,0.0457000732421875,0.12615966796875,0.0416107177734375,0.104583740234375,0.2480621337890625,0.111968994140625,0.0374908447265625,0.1246490478515625,0.0572357177734375,0.1025390625,cotton
42.38915962310179,5.140311163374658,0.17602885530414922,0.04671313522260238,0.5087923558744333,0.0021875196319146905,42.38915962310169,0.176028855304149,5.549659726418633,9.241617576221165,3.783539337567703,0.004932598039215686,0.052825927734375,0.067474365234375,0.0931854248046875,0.1897735595703125,0.1356048583984375,0.1094818115234375,0.087066650390625,0.0893096923828125,0.0653839111328125,0.109893798828125,cotton
23.89509505058151,3.906520013336218,0.22284926774597932,0.07044922512731759,0.36713475008619334,0.005100456432616772,23.895095050581507,0.22284926774597924,4.857872738040395,7.985265440709563,3.232304963411396,0.015716911764705882,0.053680419921875,0.0972137451171875,0.063934326171875,0.1271514892578125,0.1917572021484375,0.125396728515625,0.05523681640625,0.108734130859375,0.0633544921875,0.1135406494140625,cotton
15.350579329464631,3.0723830227556723,0.28389224262957846,0.09200064847177256,0.34223453089012335,0.008837128797774223,15.35057932946463,0.2838922426295784,4.50018323396296,7.272411413858939,2.908044040722115,0.030928308823529413,0.050994873046875,0.1043853759765625,0.0507354736328125,0.1173858642578125,0.20977783203125,0.1302032470703125,0.044281005859375,0.1140289306640625,0.0668182373046875,0.11138916015625,cotton
45.503467221140895,5.337842671688757,0.16938917541898374,0.04751278808421891,0.4406928302322723,0.0022666147719003797,45.50346722114091,0.16938917541898357,5.467277413594781,9.193709318541229,3.818952103122129,0.006173406862745098,0.05224609375,0.0685272216796875,0.0971527099609375,0.1917877197265625,0.130340576171875,0.1038055419921875,0.08551025390625,0.095947265625,0.0653228759765625,0.1093597412109375,cotton
11.111814972005956,2.617279126417724,0.314862695231226,0.1083955890088371,0.3046115663884164,0.012092871324247623,11.11181497200596,0.314862695231226,4.214491152015967,6.807627147440367,2.736193185977545,0.03900122549019608,0.0589447021484375,0.1090545654296875,0.055816650390625,0.1215362548828125,0.1625823974609375,0.1124420166015625,0.048004150390625,0.1213226318359375,0.080474853515625,0.12982177734375,cotton
35.6935609501154,4.659674674404083,0.22181275121130353,0.06733563878833677,0.23797481237440743,0.004860120794198778,35.69356095011534,0.22181275121130328,4.922211088739958,8.167058904574498,3.3688941786364373,0.0180453431372549,0.05841064453125,0.125457763671875,0.0331878662109375,0.100982666015625,0.2049713134765625,0.1164398193359375,0.0312957763671875,0.13055419921875,0.0707550048828125,0.1279449462890625,cotton
31.543299482170404,4.435493409986549,0.20021180804537267,0.058523661485985576,0.39521832995701883,0.0034317305264662456,31.54329948217032,0.2002118080453723,5.131888559870083,8.618103883868788,3.58221783960653,0.008440563725490196,0.0631866455078125,0.079986572265625,0.1011810302734375,0.1683502197265625,0.097869873046875,0.089324951171875,0.083587646484375,0.1043853759765625,0.0791015625,0.133026123046875,cotton
11.249419469074404,2.5907882334919266,0.31998547895230234,0.10911989986290298,0.26937224095744505,0.012043275420792313,11.249419469074395,0.3199854789523021,4.171064321199783,6.85383176357718,2.818490125448667,0.03360906862745098,0.068023681640625,0.123046875,0.0604705810546875,0.0933837890625,0.1078643798828125,0.1170806884765625,0.081573486328125,0.1097564697265625,0.08306884765625,0.155731201171875,cotton
43.07867975958767,4.969532646698385,0.2133014232407388,0.05776826186837378,0.3302268040004296,0.0035186812080282444,43.07867975958766,0.2133014232407388,5.217695205966052,8.710932539099737,3.594606336731758,0.013802083333333333,0.0550689697265625,0.14276123046875,0.048583984375,0.0992431640625,0.171844482421875,0.098480224609375,0.045440673828125,0.1330413818359375,0.0755767822265625,0.1299591064453125,cotton
24.030656117839335,3.8263353337658623,0.23057226378518397,0.06588641684686852,0.43524715459160646,0.004348750069290037,24.030656117839293,0.23057226378518397,5.007702585758136,8.306430423942448,3.400149793603219,0.009712009803921569,0.068145751953125,0.0859832763671875,0.0914306640625,0.1422882080078125,0.1079254150390625,0.09991455078125,0.0876922607421875,0.1012420654296875,0.0788726806640625,0.136505126953125,cotton
17.782738189638604,3.2830992286620537,0.2686710994172798,0.08556380592374538,0.2992460957818195,0.007502941303720392,17.7827381896386,0.2686710994172795,4.541573466198174,7.495162738663031,3.0687550564132025,0.023146446078431374,0.068511962890625,0.1192779541015625,0.0601348876953125,0.103729248046875,0.1313323974609375,0.102447509765625,0.0548248291015625,0.1263885498046875,0.0844268798828125,0.14892578125,cotton
8.277658397611496,2.158792486663783,0.3828648683956518,0.13838855207799905,0.21242657407909335,0.019743733728084047,8.277658397611496,0.3828648683956518,3.851715123273621,6.22690137372459,2.5612023929059196,0.06974571078431373,0.0589141845703125,0.1248779296875,0.049285888671875,0.0986480712890625,0.1454925537109375,0.1115875244140625,0.055145263671875,0.133544921875,0.0851287841796875,0.1373748779296875,cotton
35.86620013936959,4.680996792099197,0.19484016849535224,0.054403286478997795,0.42447998781474494,0.002965278041460323,35.86620013936947,0.19484016849535193,5.273231261962628,8.84957265450989,3.6742739790708936,0.007169117647058823,0.0681610107421875,0.08245849609375,0.097930908203125,0.1523895263671875,0.1005859375,0.09051513671875,0.0867156982421875,0.1059417724609375,0.0785064697265625,0.1367950439453125,cotton
7.3609536596501375,2.038999693627453,0.3979342062287844,0.1493649155808285,0.16694961662951333,0.022962161355074492,7.360953659650134,0.39793420622878434,3.6936628980504644,5.9817790755399365,2.4835161505215453,0.07856924019607843,0.06842041015625,0.1338653564453125,0.0445709228515625,0.0851898193359375,0.1135406494140625,0.0998382568359375,0.0521697998046875,0.14459228515625,0.09869384765625,0.15911865234375,cotton
20.526434168949464,3.3802352310409476,0.299887873164311,0.09571636860840523,0.14764839454604278,0.009769616013104294,20.526434168949443,0.2998878731643108,4.387547974466321,7.285912913789315,3.0461120073660064,0.040303308823529414,0.066864013671875,0.149169921875,0.031036376953125,0.0779571533203125,0.14361572265625,0.096527099609375,0.0364532470703125,0.1536712646484375,0.0908050537109375,0.153900146484375,cotton
23.630563950764177,3.7924347456507155,0.23342316968925705,0.0675954399221921,0.40851433218586486,0.0045795319464546035,23.630563950764127,0.23342316968925692,4.949375091533898,8.2375637461206,3.389926584024202,0.011580882352941177,0.0815887451171875,0.0985870361328125,0.0879669189453125,0.1177520751953125,0.0837860107421875,0.0878143310546875,0.08404541015625,0.116729736328125,0.0861053466796875,0.1556243896484375,cotton
6.834500732891195,1.9539279964436749,0.4033410364395551,0.14072747915609846,0.2939257264195395,0.02001383470074534,6.834500732891196,0.4033410364395552,3.8541517638067226,6.1812337549193925,2.517364152044409,0.05557598039215686,0.077178955078125,0.1327056884765625,0.0561065673828125,0.077789306640625,0.0827789306640625,0.09161376953125,0.0738525390625,0.121185302734375,0.105255126953125,0.1815338134765625,cotton
21.837447526191873,3.4467038218473682,0.28517476978112155,0.0747196767390663,0.454850646166658,0.005821558098796079,21.83744752619185,0.2851747697811213,4.9667571019237435,8.018046487851096,3.186288935011444,0.020955882352941175,0.0582122802734375,0.144317626953125,0.05242919921875,0.0965576171875,0.1378021240234375,0.0964813232421875,0.056610107421875,0.1291656494140625,0.0866851806640625,0.1417388916015625,cotton
16.938557345732427,3.1880857722991176,0.2697923510823327,0.0778062331089878,0.45805267076297707,0.006063675357732168,16.938557345732413,0.26979235108233257,4.798443263198937,7.854209135272041,3.1709496428510238,0.013893995098039215,0.082366943359375,0.0967559814453125,0.0807952880859375,0.1051025390625,0.0970306396484375,0.098114013671875,0.08966064453125,0.106353759765625,0.0868072509765625,0.157012939453125,cotton
8.156488144583815,2.1387602875096112,0.3828924756996327,0.1263644115586555,0.32629163301965536,0.01628577597375374,8.156488144583815,0.3828924756996327,4.032245939177754,6.451707780620004,2.6013396063280476,0.05111825980392157,0.0785064697265625,0.13385009765625,0.052947998046875,0.0800628662109375,0.0886077880859375,0.0852203369140625,0.0611572265625,0.1358489990234375,0.106048583984375,0.1777496337890625,cotton
5.461600751513843,1.6957703617599005,0.45529225717541255,0.1786882798622514,0.16172520259603376,0.03253983765957972,5.46160075151384,0.45529225717541266,3.4687556137045137,5.558846444610264,2.3319768975303212,0.10159313725490196,0.0660552978515625,0.1379241943359375,0.04705810546875,0.0790557861328125,0.1035919189453125,0.0966339111328125,0.0648345947265625,0.1452178955078125,0.099090576171875,0.1605377197265625,cotton
20.223069627667286,3.479130998293928,0.2532528783584698,0.07351690933846039,0.40995791106246204,0.005415522749943075,20.223069627667243,0.25325287835846955,4.838961793271545,8.010650294178317,3.285822947182112,0.01289828431372549,0.084747314453125,0.1027984619140625,0.083526611328125,0.1048431396484375,0.0845794677734375,0.0854644775390625,0.085205078125,0.1172027587890625,0.091094970703125,0.1605377197265625,cotton
2.9000198541426387,1.2224890667051134,0.540391446178516,0.23555599027115334,0.20717622064135507,0.05616331001217256,2.9000198541426374,0.5403914461785159,3.087354205035586,4.766138327208584,1.988439110776643,0.16910232843137254,0.0647125244140625,0.1376190185546875,0.0457916259765625,0.0738372802734375,0.0867919921875,0.0903167724609375,0.0740814208984375,0.140411376953125,0.1125030517578125,0.1739349365234375,cotton
8.170473570862168,2.0508733570021134,0.4165625352743304,0.13885468718139612,0.29962680342093784,0.020035652052738415,8.170473570862168,0.4165625352743307,3.978101784173208,6.300221414641395,2.543205921477715,0.07372855392156863,0.068328857421875,0.148834228515625,0.0394287109375,0.0703125,0.105499267578125,0.091339111328125,0.0560302734375,0.1498870849609375,0.101531982421875,0.1688079833984375,cotton
10.262169012519237,2.4582530907583626,0.33226752938757775,0.0965646414285539,0.5205179064708206,0.00934607631155734,10.262169012519223,0.33226752938757753,4.5554091530342555,7.2477707667849876,2.837959203386025,0.021675857843137254,0.079559326171875,0.102325439453125,0.0756378173828125,0.0995635986328125,0.10009765625,0.10430908203125,0.0937652587890625,0.1076202392578125,0.0848388671875,0.15228271484375,cotton
2.531158794093618,1.1520667081170706,0.550064364353079,0.19131868509034355,0.5659243949294411,0.03689414216930687,2.531158794093618,0.5500643643530787,3.6345934812709944,5.277446743054366,1.9452907661054963,0.0957107843137255,0.064056396484375,0.114593505859375,0.0599212646484375,0.09075927734375,0.1007080078125,0.1038360595703125,0.0850830078125,0.110260009765625,0.10430908203125,0.166473388671875,cotton
8.949960051422531,2.1708079825067284,0.3893222407282136,0.09922076978998345,0.6499268241071402,0.010138358025342298,8.94996005142253,0.38932224072821364,4.7371583769969,7.19228278759615,2.6487714231499506,0.03307291666666667,0.0564727783203125,0.1217803955078125,0.0558624267578125,0.10076904296875,0.1514434814453125,0.1146392822265625,0.070770263671875,0.1129913330078125,0.08184814453125,0.1334228515625,cotton
8.018715022467333,2.1570273302335647,0.3662403241390705,0.1060827846805437,0.5648426247348146,0.01127681324006427,8.01871502246732,0.3662403241390703,4.469626529971567,6.985355889753606,2.6796462477459513,0.027604166666666666,0.0748138427734375,0.0899658203125,0.07708740234375,0.107666015625,0.1194915771484375,0.11566162109375,0.094879150390625,0.092132568359375,0.0826873779296875,0.1456146240234375,cotton
2.784631782247212,1.1973374122933491,0.5434674773913764,0.16980158968614578,0.6598801669730838,0.0291319462552311,2.784631782247213,0.5434674773913764,3.9129563876560436,5.596838503394385,1.9958217600603139,0.07568933823529411,0.0708770751953125,0.1154632568359375,0.0572662353515625,0.08453369140625,0.091156005859375,0.09967041015625,0.08331298828125,0.117767333984375,0.1081695556640625,0.171783447265625,cotton
0.18535380022106887,0.18496203383314114,0.9075581597222223,0.6078099755422341,0.7308199347472928,0.3695545123258358,0.18535380022106884,0.9075581597222222,1.844811922570115,2.0321028896588773,0.6900182786558304,0.5759191176470588,0.0235137939453125,0.069580078125,0.0128326416015625,0.0895233154296875,0.054473876953125,0.15460205078125,0.0955352783203125,0.11468505859375,0.2295684814453125,0.1556854248046875,cotton
8.529582342128045,2.225287599721262,0.3586291909363954,0.10345401215003534,0.5532804389739397,0.010724459441848678,8.529582342128029,0.358629190936395,4.488635721498902,7.047625937603014,2.718937873805003,0.025597426470588235,0.081298828125,0.09698486328125,0.0757904052734375,0.0987548828125,0.1027984619140625,0.10601806640625,0.093017578125,0.1024627685546875,0.087921142578125,0.1549530029296875,cotton
0.19593604322856592,0.1953061472750865,0.9024099159578045,0.40432934451076247,0.9226801041490178,0.16358403200071217,0.1959360432285659,0.9024099159578047,2.8584589731476537,3.057331480996334,0.7123754643356526,0.26848958333333334,0.0236663818359375,0.069580078125,0.0127410888671875,0.0882568359375,0.0514984130859375,0.153900146484375,0.0952911376953125,0.1147613525390625,0.23480224609375,0.1555023193359375,cotton
2.584515615989043,1.111445642901769,0.5735472717068147,0.19897904207517797,0.599581281927847,0.040352910763080826,2.5845156159890426,0.5735472717068149,3.6975071500883314,5.263418264865734,1.9117657706433098,0.12308517156862746,0.049041748046875,0.11883544921875,0.047821044921875,0.091583251953125,0.13311767578125,0.1207427978515625,0.0830535888671875,0.1170806884765625,0.0944671630859375,0.144256591796875,cotton
5.214402888912918,1.731718014105153,0.4245239639506615,0.11753048882610684,0.6892319162722269,0.013855504259236304,5.214402888912918,0.4245239639506614,4.455863194889485,6.662175537335516,2.4027068324506553,0.03209252450980392,0.064361572265625,0.087554931640625,0.0751495361328125,0.11480712890625,0.130615234375,0.1280670166015625,0.0973052978515625,0.087188720703125,0.07781982421875,0.1371307373046875,cotton
0.19162969170511338,0.19088472582660515,0.9046321336745482,0.3873386596238134,0.9387590760452069,0.15011509130461637,0.1916296917051134,0.9046321336745483,3.0172670536562003,3.2122747909328924,0.7037421422494688,0.2528799019607843,0.024169921875,0.0713653564453125,0.0129547119140625,0.089691162109375,0.052703857421875,0.151824951171875,0.09722900390625,0.1134033203125,0.23443603515625,0.1522216796875,cotton
5.329305885957327,1.6369200547866218,0.46534156583792996,0.11906450983580544,0.7338770261633247,0.014488802332074656,5.329305885957324,0.4653415658379298,4.586032658061561,6.678370712444968,2.335143889766674,0.04341299019607843,0.048675537109375,0.102447509765625,0.0597381591796875,0.11083984375,0.1708221435546875,0.1322479248046875,0.0811614990234375,0.10211181640625,0.07257080078125,0.119384765625,cotton
3.287087042844099,1.3607173172577862,0.49295483950328856,0.14302516849240457,0.7214385168143458,0.020517657420479868,3.2870870428440986,0.49295483950328817,4.216518934216371,6.090228987546925,2.1200634003869414,0.04696691176470588,0.05352783203125,0.0782318115234375,0.077392578125,0.128204345703125,0.147064208984375,0.1392669677734375,0.1020050048828125,0.0781707763671875,0.073089599609375,0.123046875,cotton
0.1989292429594387,0.19845313401095732,0.9008210438893695,0.3615254542062477,0.952157071918217,0.13078128221431232,0.1989292429594387,0.9008210438893695,3.2072838310322815,3.408538920382155,0.7181709768918947,0.21040134803921567,0.0245513916015625,0.06964111328125,0.0121307373046875,0.0867767333984375,0.051116943359375,0.154388427734375,0.0953216552734375,0.1148834228515625,0.237152099609375,0.1540374755859375,cotton
0.20881250600730492,0.20800611543637063,0.896077581338908,0.603835531645404,0.6694390364459007,0.36477108958357407,0.20881250600730486,0.8960775813389081,1.8091210938168394,2.0216434974346944,0.7380513430794403,0.5850030637254902,0.023529052734375,0.071044921875,0.01300048828125,0.0903778076171875,0.04925537109375,0.1554107666015625,0.0943450927734375,0.1179656982421875,0.235565185546875,0.149505615234375,cotton
0.35573586481161107,0.3384025374855826,0.8325320639898115,0.2822528484985162,0.9418927100609918,0.07978096271059476,0.3557358648116109,0.8325320639898117,3.712424062398886,4.1074156263504635,0.9673189755748494,0.14739583333333334,0.0348052978515625,0.077728271484375,0.035675048828125,0.0996856689453125,0.09722900390625,0.141357421875,0.1100921630859375,0.1025390625,0.1393280029296875,0.16156005859375,cotton
1.7411448721645528,0.9607397395232613,0.5942886343053757,0.10540243517101965,0.9756112835788314,0.011173047629729396,1.7411448721645524,0.5942886343053762,5.605299856454616,7.0021040744404255,1.7395263279228164,0.02616421568627451,0.0060272216796875,0.01727294921875,0.0228271484375,0.1480712890625,0.4488525390625,0.2277679443359375,0.0561370849609375,0.0241241455078125,0.02142333984375,0.027496337890625,cracker
2.1852659734236846,1.0865199682814315,0.5596743959500847,0.09046230249295491,0.9800522147967763,0.008231616030067255,2.1852659734236832,0.5596743959500851,5.9104167121544595,7.46413666860205,1.8674718384272035,0.02305453431372549,0.0060272216796875,0.01629638671875,0.0240325927734375,0.1466827392578125,0.4690093994140625,0.21929931640625,0.053497314453125,0.022979736328125,0.018157958984375,0.024017333984375,cracker
3.950976172025184,1.4754881686130341,0.47740790339236405,0.061042961189286093,0.9855097938399494,0.0037519590079046756,3.950976172025183,0.4774079033923644,6.516693603064492,8.440537416918787,2.2277493346701958,0.01050857843137255,0.0082244873046875,0.0190887451171875,0.029632568359375,0.1543731689453125,0.4635162353515625,0.20220947265625,0.05096435546875,0.023040771484375,0.019775390625,0.0291748046875,cracker
11.05933518658691,2.3986301092128026,0.36527571060586406,0.053757777226854854,0.9389190067033728,0.002907032946956543,11.059335186586889,0.3652757106058634,6.235859916957972,8.888524814314401,2.8584299382002794,0.007981004901960784,0.017181396484375,0.0348358154296875,0.049285888671875,0.1811065673828125,0.358001708984375,0.1791839599609375,0.0718994140625,0.0382232666015625,0.0271148681640625,0.0431671142578125,cracker
12.56876335123512,2.5350942696318737,0.35979796077144194,0.04891562337163917,0.9518947830999311,0.0024082016659115624,12.5687633512351,0.3597979607714412,6.475377485073734,9.148648048175225,2.9433583846572544,0.00779718137254902,0.01763916015625,0.03448486328125,0.052459716796875,0.1786041259765625,0.3548583984375,0.1777191162109375,0.0711212158203125,0.0393524169921875,0.029510498046875,0.04425048828125,cracker
13.678970828527522,2.5624191717128078,0.37434925357144405,0.05636810013888775,0.9526447291783773,0.003194538460565303,13.678970828527486,0.37434925357144355,6.428077510651622,9.063899069728382,2.978711992437045,0.01367953431372549,0.01629638671875,0.0319061279296875,0.0508270263671875,0.180267333984375,0.3576202392578125,0.1797332763671875,0.0714569091796875,0.037933349609375,0.0302581787109375,0.043701171875,cracker
2.3028374002787393,1.086669640282584,0.566768597367866,0.0784199561298729,0.9874440932620768,0.006189372120061474,2.302837400278739,0.5667685973678663,6.23639438493033,7.792099443642789,1.8982108570516663,0.01763174019607843,0.0057220458984375,0.01776123046875,0.024627685546875,0.14605712890625,0.458953857421875,0.2200775146484375,0.0553436279296875,0.024505615234375,0.020843505859375,0.0261077880859375,cracker
1.8142679948817773,0.9668524275519036,0.5964460655729527,0.09670405176270574,0.9813583053452386,0.00940331537686078,1.8142679948817761,0.5964460655729524,5.823706937554303,7.237519262354068,1.7666872587528542,0.0235140931372549,0.0060272216796875,0.019195556640625,0.0239715576171875,0.14593505859375,0.438995361328125,0.2281341552734375,0.0592193603515625,0.0238494873046875,0.0233154296875,0.0313568115234375,cracker
4.1789152159025384,1.4415581296857003,0.5034113582289186,0.06489820055921885,0.9896667103820196,0.004231500694625788,4.178915215902538,0.5034113582289184,6.655653202457975,8.531907384998561,2.263678299099818,0.03716299019607843,0.00927734375,0.020843505859375,0.0292816162109375,0.14959716796875,0.436279296875,0.197998046875,0.0565643310546875,0.0283355712890625,0.0382537841796875,0.0335693359375,cracker
8.884969302672062,2.221997458910034,0.37015729327667996,0.058954276525824856,0.9385727609019233,0.003496796527339826,8.88496930267205,0.3701572932766796,6.097795055437206,8.648555029289376,2.733696542780435,0.009283088235294118,0.01641845703125,0.031280517578125,0.0494842529296875,0.188201904296875,0.356781005859375,0.183441162109375,0.072265625,0.0350494384765625,0.0258941650390625,0.0411834716796875,cracker
10.471889177239548,2.3916903054113807,0.355438802978592,0.05222614871379539,0.944995175096715,0.0027491780695650904,10.471889177239524,0.3554388029785914,6.295335201142532,8.932759613687569,2.829258729842002,0.007506127450980392,0.016021728515625,0.031158447265625,0.0494384765625,0.1844940185546875,0.3662261962890625,0.1837005615234375,0.069915771484375,0.035369873046875,0.02423095703125,0.0394439697265625,cracker
15.682447376009229,2.8525434328143016,0.33435359933393216,0.045283939867185256,0.9533597797334188,0.0020625491914939764,15.682447376009225,0.33435359933393144,6.634548606141997,9.429474901042083,3.094068290422073,0.00822610294117647,0.01580810546875,0.0292510986328125,0.050750732421875,0.1859130859375,0.368743896484375,0.1795501708984375,0.066925048828125,0.0352325439453125,0.0273895263671875,0.040435791015625,cracker
16.800095891604194,3.024839710087466,0.3017490866321998,0.04787291030173303,0.9038382586173895,0.0023039423940566044,16.80009589160419,0.30174908663219924,6.220759169754507,9.209174265640225,3.143435933673638,0.0058363970588235295,0.0264434814453125,0.0452423095703125,0.0669403076171875,0.1804656982421875,0.285919189453125,0.1700439453125,0.0793609619140625,0.0494537353515625,0.0355224609375,0.06060791015625,cracker
28.562173863417982,3.856393784842373,0.2655698377913123,0.03764930707397556,0.9063098658743172,0.0014278221620456855,28.56217386341791,0.26556983779131205,6.587401867023557,9.869563379507566,3.4811196100387587,0.004764093137254902,0.028289794921875,0.04827880859375,0.0686492919921875,0.1785888671875,0.282989501953125,0.1590118408203125,0.07843017578125,0.0552825927734375,0.03753662109375,0.0629425048828125,cracker
28.6954061839197,3.727370782871974,0.2954148351069146,0.044787290024511414,0.9197189293570117,0.0020175841893342976,28.695406183919637,0.29541483510691446,6.595942210360371,9.733767839652828,3.462971103501271,0.010891544117647058,0.0268096923828125,0.0458221435546875,0.0673675537109375,0.1778717041015625,0.2842559814453125,0.16546630859375,0.078704833984375,0.0524749755859375,0.03936767578125,0.061859130859375,cracker
10.153732053176679,2.353133214989432,0.35901037308560263,0.05784006888555819,0.9255989110212963,0.0033651736783595755,10.153732053176663,0.35901037308560224,6.056860709531221,8.693706084716592,2.814772026996383,0.008501838235294117,0.01824951171875,0.0336761474609375,0.0542449951171875,0.1855010986328125,0.3434295654296875,0.1803131103515625,0.073883056640625,0.0386505126953125,0.0273895263671875,0.0446624755859375,cracker
8.134928197688396,2.0840636864427142,0.3920435087750258,0.06941019522100055,0.9110705104676203,0.004850665484446707,8.134928197688389,0.39204350877502564,5.766549847555339,8.238379837524887,2.6620822538789417,0.01369485294117647,0.017822265625,0.0361785888671875,0.053924560546875,0.18292236328125,0.33404541015625,0.1846771240234375,0.0743865966796875,0.0408935546875,0.0280303955078125,0.047119140625,cracker
18.88098413170415,3.1022820099240644,0.3186289015565289,0.04168789192942589,0.9485375984418938,0.0017481704754517815,18.880984131704153,0.3186289015565295,6.6988348432498155,9.625644166845177,3.2092316424350393,0.006311274509803922,0.0179901123046875,0.0317840576171875,0.0523834228515625,0.185302734375,0.3545379638671875,0.1782379150390625,0.0698089599609375,0.036712646484375,0.0291290283203125,0.0441131591796875,cracker
29.13897225526254,4.017316551927142,0.24235571205679973,0.04378254955725007,0.8134939047447933,0.0019251588753087861,29.138972255262395,0.24235571205679948,6.115085279675471,9.517270484052892,3.51837766994714,0.005131740196078431,0.0394134521484375,0.05865478515625,0.0799560546875,0.168060302734375,0.2249603271484375,0.1475677490234375,0.085540771484375,0.064453125,0.047698974609375,0.0836944580078125,cracker
32.25460811346605,4.192225315984232,0.2362890426201535,0.04045780033502143,0.8313872125056896,0.001647184699230694,32.25460811346596,0.236289042620153,6.261615468159935,9.71383342088436,3.573664926103284,0.004825367647058824,0.038665771484375,0.0599822998046875,0.07708740234375,0.166351318359375,0.23382568359375,0.1486053466796875,0.0822906494140625,0.066162109375,0.0462188720703125,0.080810546875,cracker
47.30538050269137,4.832500540657441,0.24450549121524964,0.038857200168846646,0.8758086008338853,0.001518084392529827,47.305380502691264,0.24450549121524942,6.6267959582896,10.125773764319712,3.8036291343395536,0.007460171568627451,0.0340576171875,0.053924560546875,0.073516845703125,0.17327880859375,0.2508544921875,0.150787353515625,0.0819549560546875,0.060760498046875,0.0458526611328125,0.07501220703125,cracker
32.27424166786824,4.183861375432526,0.2392320337592993,0.03939707355553505,0.846528956097146,0.001559077364418664,32.274241667868125,0.2392320337592989,6.329942913448102,9.775228107419775,3.581702952102723,0.004258578431372549,0.0381927490234375,0.05657958984375,0.0792694091796875,0.1697845458984375,0.23211669921875,0.149505615234375,0.0854034423828125,0.062713623046875,0.046112060546875,0.080322265625,cracker
44.061563851643555,4.737310289311795,0.2355953914045676,0.03377123372792484,0.8789994989064754,0.00115030206757729,44.0615638516436,0.23559539140456798,6.689261989570101,10.237343176408093,3.7652546244462655,0.005453431372549019,0.034698486328125,0.0556488037109375,0.0728607177734375,0.1710052490234375,0.25653076171875,0.149566650390625,0.077117919921875,0.065185546875,0.0437164306640625,0.07366943359375,cracker
45.451139090133715,4.689916002859487,0.2569322756544513,0.04101238892004333,0.8799093213641281,0.001691937827776977,45.451139090133594,0.25693227565445126,6.618038070215569,10.05400544891003,3.7690939691671943,0.00854779411764706,0.03240966796875,0.049713134765625,0.072357177734375,0.1744537353515625,0.2625732421875,0.155517578125,0.0810394287109375,0.0605621337890625,0.042266845703125,0.0691070556640625,cracker
26.867852974216692,3.8592214683054653,0.249709253624953,0.043975244833465654,0.834517989325299,0.0019426783107184833,26.867852974216646,0.24970925362495294,6.149103522511657,9.490819543515745,3.463192211947277,0.0056066176470588236,0.0364532470703125,0.05743408203125,0.0767822265625,0.1700439453125,0.235015869140625,0.156524658203125,0.0862884521484375,0.0599365234375,0.043670654296875,0.077850341796875,cracker
23.758307907415457,3.602094702157828,0.2641526986696206,0.049290858230589714,0.8095646507512548,0.0024439100606164542,23.758307907415414,0.2641526986696202,5.951559567119037,9.197961268592618,3.36762077201187,0.006686580882352941,0.0373077392578125,0.0612945556640625,0.0773162841796875,0.1639251708984375,0.231292724609375,0.1523284912109375,0.085968017578125,0.06427001953125,0.0447845458984375,0.081512451171875,cracker
48.276443840710364,4.920520247621101,0.23769992789208888,0.036700846541459865,0.8773130506151026,0.001354268739723303,48.2764438407103,0.2376999278920892,6.667081134279214,10.204709110376644,3.826753864682777,0.006985294117647059,0.0357513427734375,0.05413818359375,0.074737548828125,0.1698150634765625,0.24725341796875,0.15484619140625,0.08038330078125,0.0629730224609375,0.04498291015625,0.0751190185546875,cracker
26.285106449442623,3.818618620242219,0.25065142068725516,0.04694538786723105,0.8056814798010753,0.0022131051582782164,26.28510644944252,0.25065142068725493,6.008315416667422,9.338964399370774,3.4490505971735237,0.00625,0.0394744873046875,0.0607452392578125,0.0795440673828125,0.1668243408203125,0.2202911376953125,0.1467132568359375,0.08685302734375,0.0645599365234375,0.048675537109375,0.0863189697265625,cracker
33.2049580239572,4.251202317017486,0.2344638952916618,0.039300964669114924,0.839083310553753,0.0015548142395684732,33.20495802395713,0.23446389529166164,6.311174045216367,9.77759415510591,3.5931465642920153,0.004411764705882353,0.0394744873046875,0.0600738525390625,0.0787353515625,0.1640625,0.2306060791015625,0.15045166015625,0.08355712890625,0.0659332275390625,0.0463104248046875,0.0807952880859375,cracker
46.2119080551951,4.844559859789495,0.2363860519745885,0.03692300848321636,0.8705917098954584,0.001370147021280929,46.21190805519511,0.23638605197458884,6.6192767771895005,10.144694599461019,3.8030125675263866,0.006495098039215687,0.0367279052734375,0.05523681640625,0.075958251953125,0.171295166015625,0.236480712890625,0.1528778076171875,0.08123779296875,0.063690185546875,0.0471343994140625,0.0793609619140625,cracker
30.32410346981935,4.104477184256055,0.23529899765895934,0.04285102406674016,0.8123174100679251,0.001843866101748685,30.324103469819295,0.23529899765895876,6.1381018438098405,9.568836610410735,3.543443900967918,0.0047181372549019605,0.040069580078125,0.0599822998046875,0.07867431640625,0.1681365966796875,0.22125244140625,0.14697265625,0.08624267578125,0.0649871826171875,0.0485687255859375,0.085113525390625,cracker
44.022621798106556,4.824755202326017,0.22176677757015067,0.03404337965327066,0.8531149853749107,0.001168293553917548,44.02262179810649,0.22176677757015062,6.5646435645541,10.170042002980468,3.777907668099372,0.004411764705882353,0.0384063720703125,0.060516357421875,0.0738372802734375,0.1660919189453125,0.241851806640625,0.14459228515625,0.0819244384765625,0.0669708251953125,0.04583740234375,0.0799713134765625,cracker
50.28495620674735,5.010011233660125,0.23708370662932268,0.037696327201845396,0.8661471018449173,0.0014285194027536922,50.284956206747395,0.23708370662932307,6.633331144996878,10.180217526789622,3.8529909266136153,0.007689950980392156,0.0369110107421875,0.055572509765625,0.075164794921875,0.1678619384765625,0.240692138671875,0.152496337890625,0.08441162109375,0.0612640380859375,0.0465240478515625,0.0791015625,cracker
29.808328617599074,4.055653324442525,0.23965769928677627,0.04294997823535518,0.8202285836371593,0.0018527843597776793,29.808328617599,0.2396576992867756,6.157829445970458,9.573012601655439,3.5308688459982984,0.0049938725490196074,0.0394744873046875,0.06103515625,0.0791015625,0.1666717529296875,0.222747802734375,0.150177001953125,0.0876617431640625,0.063629150390625,0.0470428466796875,0.08245849609375,cracker
24.153509347366427,3.6317250877066574,0.26181033581786567,0.050045955120949094,0.7948398367921538,0.002518892879736305,24.153509347366395,0.2618103358178655,5.904978082309803,9.16454057540917,3.37849938769209,0.00744485294117647,0.039093017578125,0.0618896484375,0.0782012939453125,0.1631927490234375,0.2253875732421875,0.14898681640625,0.0859222412109375,0.0678863525390625,0.04693603515625,0.0825042724609375,cracker
48.48290845167718,4.996807042363513,0.23018318095255802,0.03458126856145042,0.8767553555941269,0.0012022752058434612,48.482908451677226,0.2301831809525581,6.697120556780439,10.27301273906842,3.8436565304243295,0.00701593137254902,0.0359039306640625,0.054595947265625,0.0744476318359375,0.169830322265625,0.2460479736328125,0.153839111328125,0.0817413330078125,0.062042236328125,0.044647216796875,0.076904296875,cracker
25.94378242442823,3.799730016700318,0.24967239790818707,0.04991330541601857,0.768640242931184,0.0025011111691017355,25.943782424428104,0.24967239790818654,5.85876415417542,9.184958331532968,3.4396377501029436,0.006602328431372549,0.041473388671875,0.062164306640625,0.0825653076171875,0.1650390625,0.2085723876953125,0.1446075439453125,0.0873565673828125,0.0662841796875,0.05145263671875,0.090484619140625,cracker
30.31034726727716,4.102629051927152,0.23461411935737342,0.04437170190069728,0.7923728133838666,0.0019807746327760753,30.310347267277006,0.23461411935737275,6.057192995550925,9.482655514974082,3.534742278680968,0.0057904411764705885,0.040313720703125,0.0623779296875,0.0798187255859375,0.1648712158203125,0.223297119140625,0.1438140869140625,0.0852508544921875,0.0679779052734375,0.0477447509765625,0.08453369140625,cracker
46.514269031141964,4.936088733900424,0.22475897295840047,0.03565987862956309,0.856606960877263,0.0012777439192403217,46.51426903114186,0.22475897295840053,6.5722865938131285,10.147674246170357,3.82164924676794,0.0062040441176470585,0.0373077392578125,0.0572052001953125,0.078033447265625,0.1667022705078125,0.235748291015625,0.151123046875,0.084991455078125,0.0628662109375,0.046478271484375,0.0795440673828125,cracker
28.66846556913215,3.992660289912533,0.24093207716724913,0.04531695978705942,0.7951285925537748,0.002062446027863526,28.66846556913206,0.24093207716724907,6.027987134375766,9.42085749933349,3.5065535732016913,0.005637254901960784,0.0405120849609375,0.0615997314453125,0.080963134765625,0.1664276123046875,0.215484619140625,0.1442413330078125,0.0877685546875,0.0665283203125,0.04949951171875,0.08697509765625,cracker
46.50775377859485,5.004663020232599,0.2098169804098363,0.03382674795763418,0.8305302156755054,0.0011543630118909713,46.50775377859476,0.2098169804098362,6.5058063939831605,10.173486251994857,3.815189562065712,0.0032475490196078433,0.038787841796875,0.0614013671875,0.0789031982421875,0.1636199951171875,0.236114501953125,0.142608642578125,0.0819549560546875,0.0689544677734375,0.046661376953125,0.08099365234375,cracker
53.2912729028499,5.221129898957125,0.2246528542158719,0.03585887632384377,0.8536510785323009,0.0012925672551754464,53.291272902849855,0.22465285421587172,6.625531812226571,10.250849964150138,3.90453606038787,0.006786151960784314,0.0387725830078125,0.057525634765625,0.0759735107421875,0.1670379638671875,0.2338104248046875,0.150543212890625,0.084136962890625,0.064361572265625,0.046630859375,0.081207275390625,cracker
27.520093263408377,3.912960580065353,0.24457081189614793,0.046482350259364716,0.794406821173618,0.002169734555993616,27.520093263408306,0.24457081189614785,5.997309543138622,9.362938054289348,3.479617423273786,0.0058823529411764705,0.041259765625,0.06072998046875,0.079193115234375,0.1679229736328125,0.2176361083984375,0.14459228515625,0.0884246826171875,0.06634521484375,0.048553466796875,0.0853424072265625,cracker
23.706686881247638,3.61278970227797,0.2612339306102817,0.052947800825255006,0.7675439491161925,0.002818352764742541,23.706686881247595,0.2612339306102815,5.789973319713264,9.041642152126725,3.369302350465665,0.008394607843137255,0.039764404296875,0.06396484375,0.0788726806640625,0.16192626953125,0.2224273681640625,0.1460113525390625,0.085479736328125,0.068878173828125,0.0481109619140625,0.084564208984375,cracker
49.41542994281039,5.0492629337274035,0.22671755299636032,0.035506788613762316,0.8599203414934348,0.0012671330264883564,49.41542994281045,0.22671755299636026,6.618298599128696,10.21047081866053,3.856817349687504,0.0061121323529411764,0.037445068359375,0.057373046875,0.07745361328125,0.1681365966796875,0.2364349365234375,0.151123046875,0.0843353271484375,0.0631866455078125,0.04644775390625,0.07806396484375,cracker
22.12003084751064,3.5209647731641693,0.26331767953511875,0.054063622013202715,0.7739988990571606,0.0029344854666646476,22.12003084751057,0.26331767953511853,5.761942938639072,8.97637093690597,3.3348734268121114,0.00819546568627451,0.04058837890625,0.0622100830078125,0.0813751220703125,0.1683502197265625,0.207977294921875,0.144378662109375,0.0873565673828125,0.0684967041015625,0.051025390625,0.0882415771484375,cracker
28.968801542675966,4.020308985726646,0.23696050669745267,0.046327925664690114,0.7838414412703166,0.0021593948718555784,28.96880154267589,0.23696050669745194,5.994116754275869,9.390043979187059,3.5030423130869623,0.0061121323529411764,0.040771484375,0.0625762939453125,0.0797882080078125,0.164337158203125,0.21832275390625,0.1476287841796875,0.08489990234375,0.068267822265625,0.0471038818359375,0.0863037109375,cracker
51.96336559256053,5.206850249903874,0.22186183553799238,0.03578994535204855,0.8512139864468645,0.0012872694148235984,51.96336559256054,0.2218618355379921,6.604461236192236,10.224014822994132,3.8976630318789036,0.006954656862745098,0.03759765625,0.058319091796875,0.0778350830078125,0.166656494140625,0.23040771484375,0.15301513671875,0.0870513916015625,0.0627593994140625,0.0467376708984375,0.079620361328125,cracker
25.588309904844305,3.7957403102172185,0.24687814695473093,0.04806530131490573,0.7946718018793997,0.002320363296622629,25.588309904844287,0.2468781469547309,5.946628387046147,9.263562489656895,3.430718457111876,0.00586703431372549,0.04046630859375,0.0603485107421875,0.0822906494140625,0.1684417724609375,0.2115325927734375,0.1477508544921875,0.0888214111328125,0.067535400390625,0.047943115234375,0.084869384765625,cracker
43.16832277549509,4.824671745842932,0.21670170723566182,0.0345093668496067,0.8420046548054979,0.0012026014728434675,43.168322775495,0.21670170723566148,6.498308233731466,10.10438805247112,3.7646349226213185,0.003676470588235294,0.0381317138671875,0.0604095458984375,0.0772552490234375,0.1655731201171875,0.2372894287109375,0.1470184326171875,0.08135986328125,0.0690155029296875,0.044921875,0.0790252685546875,cracker
48.07568648476553,4.999876790176847,0.2300596666253919,0.03653304527949386,0.8693697088812051,0.001342459103502347,48.07568648476546,0.23005966662539173,6.6373460119021885,10.189764097296315,3.8435057143994076,0.007996323529411764,0.03466796875,0.0536651611328125,0.0750885009765625,0.1738128662109375,0.244964599609375,0.156097412109375,0.0856170654296875,0.060455322265625,0.0426788330078125,0.0729522705078125,cracker
24.672930348303574,3.7048213277345283,0.25369786802256833,0.05093207322565958,0.7770809634829978,0.0026048170699890837,24.672930348303534,0.2536978680225677,5.8530330542886695,9.142134560692883,3.403993965693185,0.006954656862745098,0.040252685546875,0.0621490478515625,0.081085205078125,0.1659088134765625,0.2113494873046875,0.1477508544921875,0.08807373046875,0.0677337646484375,0.048980712890625,0.0867156982421875,cracker
24.455540987841328,3.6569762531238026,0.2587132422059177,0.05366416173616122,0.7545560276327439,0.002895281737875767,24.45554098784121,0.25871324220591685,5.766271275655889,9.034103145463277,3.385033688848888,0.009313725490196078,0.04046630859375,0.06329345703125,0.080963134765625,0.161346435546875,0.215606689453125,0.1497039794921875,0.0875091552734375,0.0677642822265625,0.047698974609375,0.0856475830078125,cracker
51.793859378003674,5.210911443315072,0.21980969544352666,0.03472760455674059,0.8539284859104583,0.0012118111392547498,51.793859378003646,0.21980969544352644,6.623691640144164,10.258609528324868,3.897511545140992,0.006801470588235294,0.03778076171875,0.0567779541015625,0.077728271484375,0.1668243408203125,0.2354583740234375,0.154022216796875,0.0851287841796875,0.062957763671875,0.0457000732421875,0.0776214599609375,cracker
20.558766039504086,3.3846191969434862,0.2721329183293341,0.05821199283415237,0.7512754042207891,0.0034136968205357152,20.558766039504032,0.2721329183293334,5.626051019304027,8.774045445598123,3.2730003522982427,0.01050857843137255,0.0417022705078125,0.071868896484375,0.081298828125,0.1564483642578125,0.20556640625,0.135009765625,0.088348388671875,0.0761566162109375,0.053070068359375,0.0905303955078125,cracker
30.173153339460875,4.061809685577661,0.2391324135945934,0.046374156748433794,0.7801268566485354,0.002178944340839809,30.173153339460782,0.2391324135945928,6.007542534648498,9.396056459725603,3.5018882874692148,0.007061887254901961,0.0407867431640625,0.074310302734375,0.078399658203125,0.1493072509765625,0.2278289794921875,0.1322479248046875,0.078460693359375,0.0838470458984375,0.0490264892578125,0.085784912109375,cracker
47.06964394703971,4.9627345852556655,0.22890393545822224,0.03626126376112971,0.860898077325003,0.001324454133961535,47.069643947039594,0.22890393545822213,6.592960093839427,10.15008574974163,3.8281339163582104,0.007705269607843138,0.0373687744140625,0.0603790283203125,0.07794189453125,0.1656494140625,0.23193359375,0.1504364013671875,0.08538818359375,0.06939697265625,0.0450286865234375,0.07647705078125,cracker
24.275268541546602,3.68683302395714,0.2528781794794218,0.050731349601034315,0.7829204496155692,0.0025975523825279073,24.27526854154652,0.25287817947942115,5.863496578971897,9.126994252221778,3.377705263352537,0.0078125,0.040802001953125,0.0731658935546875,0.080596923828125,0.1566162109375,0.2118988037109375,0.1352386474609375,0.085205078125,0.079376220703125,0.0501708984375,0.0869293212890625,cracker
49.63083955089405,5.133830107410606,0.20650569695830162,0.03567540611774499,0.7842203676159709,0.0013034801917211102,49.63083955089388,0.20650569695830134,6.369742100096079,10.047929130860535,3.808597595355055,0.004856004901960784,0.039703369140625,0.087493896484375,0.0753326416015625,0.1344757080078125,0.2418365478515625,0.1218109130859375,0.0703582763671875,0.094940185546875,0.0486907958984375,0.085357666015625,cracker
51.54643627150615,5.170636218641865,0.22332122729646736,0.03549088270625721,0.8572161668293666,0.0012720240716650065,51.54643627150614,0.22332122729646714,6.630643010170224,10.234813631222124,3.881302202310341,0.00816482843137255,0.036468505859375,0.0622100830078125,0.0780181884765625,0.1651458740234375,0.2373199462890625,0.144683837890625,0.080657958984375,0.0730133056640625,0.045440673828125,0.0770416259765625,cracker
23.17229453515482,3.6034006001297674,0.2570730511687184,0.05269787803323117,0.7757393591109372,0.00278985636921068,23.172294535154748,0.257073051168718,5.801534271755381,9.04619297736279,3.3609019077053595,0.00779718137254902,0.041534423828125,0.064056396484375,0.0821685791015625,0.1659698486328125,0.2045745849609375,0.143829345703125,0.088409423828125,0.0691680908203125,0.051116943359375,0.08917236328125,cracker
23.88946396818537,3.621148506584014,0.26039857070858013,0.055403915638011225,0.7392310295614418,0.00309397291327618,23.88946396818531,0.26039857070857997,5.6976128470927945,8.940376501962179,3.361903054569775,0.009482230392156862,0.041656494140625,0.07037353515625,0.0792083740234375,0.1556243896484375,0.21258544921875,0.14141845703125,0.0829925537109375,0.0767059326171875,0.050140380859375,0.08929443359375,cracker
51.340045820718004,5.239484558222794,0.21345571153638848,0.033785753874973935,0.8461939205218802,0.001148337747940338,51.34004582071799,0.21345571153638823,6.59744286120511,10.256052619715065,3.8970520939113147,0.005821078431372549,0.039276123046875,0.060028076171875,0.0806732177734375,0.1649169921875,0.2243804931640625,0.1506195068359375,0.0836181640625,0.06781005859375,0.0469207763671875,0.081756591796875,cracker
21.044611297337607,3.397246912245291,0.2741214046322072,0.0625572548892525,0.6911297749326172,0.003960088736967741,21.04461129733756,0.27412140463220663,5.454306675238696,8.591801983306441,3.2663476626281036,0.013036151960784314,0.0442657470703125,0.0901947021484375,0.0782928466796875,0.1376190185546875,0.197784423828125,0.1225128173828125,0.0833282470703125,0.093170166015625,0.0571441650390625,0.0956878662109375,cracker
30.130991280397012,4.007364249927916,0.24807460715605506,0.05275199208981863,0.6922053098212311,0.0028551529584530614,30.130991280396962,0.2480746071560546,5.728357933456148,9.070631540293554,3.4547346858603967,0.010401348039215686,0.043060302734375,0.108551025390625,0.07135009765625,0.11651611328125,0.221282958984375,0.1074981689453125,0.0674285888671875,0.1146087646484375,0.0554962158203125,0.094207763671875,cracker
58.00339624483373,5.574865541498458,0.19871379445038626,0.03261936046241163,0.8128308054855703,0.0010773917662534264,58.00339624483371,0.1987137944503861,6.552397090553694,10.307997451705722,3.960152001856574,0.00505514705882353,0.042724609375,0.081268310546875,0.0809478759765625,0.1451416015625,0.2115631103515625,0.1324462890625,0.0806427001953125,0.0875396728515625,0.0500030517578125,0.0877227783203125,cracker
26.674966914768508,3.849609510164372,0.2459141668525929,0.04862408527532235,0.7826715605717021,0.0023944349962939765,26.674966914768355,0.24591416685259193,5.929795245008411,9.243236449445943,3.4265890958660883,0.00742953431372549,0.03826904296875,0.07952880859375,0.079681396484375,0.1482696533203125,0.2221221923828125,0.133148193359375,0.0839385986328125,0.084747314453125,0.0481414794921875,0.0821533203125,cracker
41.67648329368522,4.745146307910411,0.21552877557618022,0.0375525182298286,0.8067591806780592,0.0014403036969004089,41.676483293685116,0.21552877557617975,6.337701692585954,9.91514972485376,3.7012482636571447,0.00470281862745098,0.0378875732421875,0.0796356201171875,0.0764312744140625,0.1411285400390625,0.248626708984375,0.1300811767578125,0.0743408203125,0.087249755859375,0.0457000732421875,0.07891845703125,cracker
45.30231673214645,4.9153619851739805,0.21914859264434539,0.03462727085186086,0.8495973700212417,0.0012165533853314588,45.30231673214628,0.2191485926443449,6.552926889312889,10.133549977677212,3.784901049191675,0.005407475490196078,0.0333404541015625,0.070556640625,0.076873779296875,0.156829833984375,0.2509307861328125,0.1405029296875,0.0799102783203125,0.0780487060546875,0.0412750244140625,0.0717315673828125,cracker
26.29299965758365,3.809942840494042,0.25021833357653,0.05251899393969431,0.7450292024414561,0.0027892964717230856,26.292999657583618,0.2502183335765296,5.78337122629088,9.089399905451073,3.421485602081015,0.009221813725490196,0.0430908203125,0.083770751953125,0.0810089111328125,0.14288330078125,0.2056884765625,0.1272735595703125,0.085205078125,0.0875091552734375,0.0525970458984375,0.090972900390625,cracker
24.065617535923685,3.578800356233176,0.26953975617517545,0.06027348797738846,0.6827907739689738,0.003705723964691559,24.065617535923685,0.26953975617517517,5.5344487296406495,8.7279045468052,3.319379483208641,0.013495710784313726,0.0420074462890625,0.0979156494140625,0.0734100341796875,0.1258087158203125,0.221923828125,0.1166839599609375,0.07696533203125,0.1013031005859375,0.05316162109375,0.0908203125,cracker
50.22733241121206,5.155044889585732,0.21409797994308483,0.034265216026114605,0.8298443575170189,0.0011941308888416065,50.227332411212025,0.21409797994308508,6.530047995179775,10.168778364584677,3.8462181039598855,0.005667892156862745,0.0374908447265625,0.0835418701171875,0.0768280029296875,0.1419830322265625,0.239013671875,0.129608154296875,0.0773773193359375,0.0888214111328125,0.046722412109375,0.07861328125,cracker
21.065201545078878,3.3977595456074603,0.274646046753515,0.05718273060708845,0.7709379336271167,0.003323633537113296,21.065201545078814,0.27464604675351467,5.714604392524166,8.845850815106022,3.25534905990163,0.011412377450980392,0.036041259765625,0.0863800048828125,0.076263427734375,0.1405487060546875,0.232635498046875,0.1305389404296875,0.082366943359375,0.08929443359375,0.046722412109375,0.0792083740234375,cracker
25.357154640042324,3.655819216166851,0.26885227491784336,0.05460732589794072,0.7485385565947396,0.0030703042354624124,25.35715464004229,0.26885227491784297,5.773941361933287,8.98176274176836,3.330794869957206,0.011243872549019608,0.0340423583984375,0.0992584228515625,0.069915771484375,0.1263275146484375,0.254608154296875,0.1156005859375,0.0703582763671875,0.1045684814453125,0.0477142333984375,0.077606201171875,cracker
45.505922151335945,4.914211991781996,0.22114025636864523,0.035176601715886505,0.844893297143116,0.0012586403912128044,45.505922151336016,0.22114025636864573,6.527283962023725,10.100772174210926,3.7800420702729616,0.006587009803921569,0.0345916748046875,0.0805816650390625,0.0765380859375,0.145416259765625,0.2482757568359375,0.13427734375,0.0770263671875,0.086334228515625,0.0431976318359375,0.073760986328125,cracker
22.780402684664626,3.545533914239719,0.2645253549113717,0.048367072340710596,0.8399229834807207,0.0023726153925259976,22.78040268466455,0.2645253549113713,6.053407817538048,9.243897079735042,3.317319288791425,0.008440563725490196,0.0298309326171875,0.069976806640625,0.0713958740234375,0.156158447265625,0.2659759521484375,0.147674560546875,0.080474853515625,0.0733489990234375,0.0381011962890625,0.0670623779296875,cracker
30.7290323433296,4.041625156189923,0.24857067059625745,0.04383533022449102,0.8284114090090718,0.0019880466864343974,30.729032343329486,0.24857067059625712,6.2151321226022,9.547172192143847,3.456939966714382,0.00821078431372549,0.0279693603515625,0.08154296875,0.0673675537109375,0.1368560791015625,0.30279541015625,0.1259613037109375,0.0682830810546875,0.087371826171875,0.0386505126953125,0.063201904296875,cracker
34.41232039660233,4.283196712202029,0.24145957922098743,0.03797419930669791,0.8637140680513364,0.001468919669502495,34.41232039660226,0.24145957922098724,6.447662421267065,9.856863221804451,3.584591135104671,0.005315563725490196,0.0285186767578125,0.0710906982421875,0.0738677978515625,0.1512603759765625,0.2780609130859375,0.1427764892578125,0.0770263671875,0.07745361328125,0.0369110107421875,0.0630340576171875,cracker
21.558981821895472,3.440490346261055,0.27158334056511735,0.05393006527302632,0.8017055359616179,0.0029446564003468368,21.558981821895426,0.2715833405651167,5.847926462437551,9.008105728755075,3.284902221234236,0.009834558823529412,0.03369140625,0.07281494140625,0.0753936767578125,0.1561279296875,0.2414093017578125,0.14178466796875,0.082061767578125,0.077972412109375,0.0435638427734375,0.0751800537109375,cracker
17.66185127114577,3.0471033977316444,0.3057165664381833,0.06667478497932885,0.7448394662790456,0.004537150858531765,17.661851271145714,0.30571656643818307,5.4933489303426555,8.460743676707631,3.112017389258848,0.016528799019607843,0.0314788818359375,0.0805206298828125,0.072296142578125,0.1414642333984375,0.2569580078125,0.13568115234375,0.0788421630859375,0.0854644775390625,0.04364013671875,0.0736541748046875,cracker
35.104587538446815,4.358727412533636,0.23519980839848725,0.0376843467050715,0.858143375629004,0.0014376910683274989,35.104587538446744,0.23519980839848706,6.4283750954031,9.87846014389793,3.6189820139611353,0.005208333333333333,0.031219482421875,0.0664825439453125,0.0741729736328125,0.1582794189453125,0.2635650634765625,0.148681640625,0.0813751220703125,0.070343017578125,0.0391082763671875,0.0667724609375,cracker
2.446663602941177,1.2020170727604775,0.5180157660544867,0.1110467224279597,0.9348174898549129,0.012469907753542248,2.4466636029411766,0.5180157660544866,5.12556014488411,6.727370395767645,1.8863149924385132,0.03674938725490196,0.0068359375,0.01800537109375,0.0258331298828125,0.1513824462890625,0.45721435546875,0.2350921630859375,0.05120849609375,0.016845703125,0.0132598876953125,0.024322509765625,linen
2.315378685481546,1.1537357176326422,0.5333640917402648,0.11994595332972365,0.9232718578975633,0.014445442293482982,2.3153786854815457,0.5333640917402644,4.9639900014553495,6.5624970469096375,1.8813791561326076,0.03230698529411765,0.0068206787109375,0.018096923828125,0.0283203125,0.1738433837890625,0.4255218505859375,0.227874755859375,0.0561370849609375,0.0203857421875,0.0177764892578125,0.0252227783203125,linen
4.406001147395235,1.6477445573817775,0.42356534410907026,0.08159466323295936,0.9363963702011185,0.0067731514273230604,4.406001147395232,0.42356534410907,5.565525685935725,7.579905157197741,2.2212568977386025,0.019362745098039216,0.007781982421875,0.0200958251953125,0.0308685302734375,0.1591796875,0.466064453125,0.209228515625,0.0504913330078125,0.019287109375,0.0133209228515625,0.023681640625,linen
12.066629391339868,2.6873220936658977,0.3046123612396408,0.06217062355201264,0.8634400056507427,0.003885415595034387,12.066629391339868,0.30461236123964053,5.6913045271103435,8.452305272857448,2.9197770040875657,0.00978860294117647,0.0108184814453125,0.022613525390625,0.0483245849609375,0.2088165283203125,0.397216796875,0.165008544921875,0.0641021728515625,0.0323944091796875,0.02191162109375,0.0287933349609375,linen
14.070048493968693,2.8527765312620175,0.3010878969845274,0.05952157861733736,0.8462427140448432,0.0036031257536404426,14.070048493968667,0.301087896984527,5.723517254715061,8.560206362435549,2.987820775194198,0.010278799019607843,0.012969970703125,0.03265380859375,0.048431396484375,0.182220458984375,0.4073944091796875,0.1585845947265625,0.0626373291015625,0.03985595703125,0.0217437744140625,0.03350830078125,linen
17.43746904736162,3.161038647995959,0.273073750053247,0.05429378959662142,0.8586017295158721,0.0029736791991929598,17.437469047361592,0.273073750053247,5.9332491617032925,8.933426031808418,3.1456211889726315,0.008685661764705883,0.0129241943359375,0.026763916015625,0.0505523681640625,0.2066650390625,0.3854522705078125,0.161865234375,0.0631561279296875,0.0348052978515625,0.0243072509765625,0.03350830078125,linen
1.694327437163591,0.9764714442762397,0.5819274016358225,0.13590073918066226,0.9338053219734912,0.018578009758169624,1.6943274371635912,0.5819274016358227,4.851830127375224,6.221216540664953,1.697182750999497,0.04644607843137255,0.0067291259765625,0.01715087890625,0.0266571044921875,0.156524658203125,0.42864990234375,0.2428131103515625,0.057281494140625,0.02142333984375,0.0162200927734375,0.02655029296875,linen
1.6674127288783172,0.9456263966983856,0.5967655323273127,0.1441826136763022,0.92762980602641,0.02091780305135432,1.667412728878316,0.5967655323273124,4.772801676144693,6.12289577902108,1.704055513663214,0.058363970588235295,0.0071868896484375,0.0200042724609375,0.0281524658203125,0.1520538330078125,0.408935546875,0.24713134765625,0.0633697509765625,0.0217437744140625,0.019439697265625,0.031982421875,linen
3.2310707870770896,1.3793526678440993,0.4803470817515525,0.09443187034361408,0.9413833728087877,0.009024830325943237,3.231070787077086,0.4803470817515526,5.410367804392835,7.2299539659990515,2.059874449222759,0.026485906862745098,0.00909423828125,0.02044677734375,0.033294677734375,0.1629486083984375,0.43402099609375,0.2169189453125,0.05767822265625,0.02142333984375,0.0158843994140625,0.028289794921875,linen
14.215552566921378,2.9649763162005,0.27696947912181014,0.05714096575946257,0.8356186897797159,0.003283777658340952,14.215552566921376,0.2769694791218097,5.68155064339299,8.566660924345518,3.0237591047375143,0.006893382352941176,0.0164337158203125,0.0330657958984375,0.0562591552734375,0.1819000244140625,0.3534393310546875,0.2021636962890625,0.073150634765625,0.02880859375,0.0196380615234375,0.0351409912109375,linen
17.017397335159565,3.2261720251826236,0.26177785909555007,0.05508112072406848,0.8120547656141951,0.003069049933536767,17.017397335159554,0.2617778590955498,5.71516255595969,8.718685795195935,3.1250766664657643,0.008302696078431373,0.01690673828125,0.036834716796875,0.0596160888671875,0.1770172119140625,0.3613739013671875,0.18353271484375,0.0678863525390625,0.03997802734375,0.0201416015625,0.036712646484375,linen
31.493066173466957,4.364897530396958,0.20750634880747354,0.04022270351696456,0.8338459228910124,0.0016383172543010713,31.493066173466936,0.20750634880747348,6.231398757139127,9.641563938849673,3.54941634249755,0.005208333333333333,0.017608642578125,0.0330810546875,0.053985595703125,0.179962158203125,0.3737945556640625,0.1848297119140625,0.069427490234375,0.0304107666015625,0.020355224609375,0.0365447998046875,linen
30.876725358035443,4.2589433751441685,0.2151421131740221,0.04609521261784549,0.7683601359111505,0.0021360021122099624,30.87672535803537,0.215142113174022,5.932703959580448,9.343077460809344,3.5564145602916923,0.006035539215686275,0.0246734619140625,0.040008544921875,0.06866455078125,0.18951416015625,0.30078125,0.1695709228515625,0.076416015625,0.0471038818359375,0.0308685302734375,0.052398681640625,linen
40.48420092332278,4.811523948120907,0.20274299430120044,0.0416666502833916,0.7479823780361796,0.0017767662946370161,40.48420092332275,0.20274299430119996,6.071207610523987,9.628349745656775,3.6787118381640713,0.005897671568627451,0.024322509765625,0.0509033203125,0.0653533935546875,0.17108154296875,0.33819580078125,0.1375885009765625,0.064666748046875,0.0625152587890625,0.031707763671875,0.0536651611328125,linen
45.30288515835255,5.020527050893879,0.19260183297069602,0.04032714728259088,0.7656279240541828,0.0016378378818882864,45.30288515835255,0.1926018329706959,6.192258694964022,9.846213341195396,3.793558207348815,0.005545343137254902,0.0238494873046875,0.0421600341796875,0.0676116943359375,0.1927947998046875,0.29620361328125,0.172119140625,0.0756072998046875,0.0459136962890625,0.030792236328125,0.052947998046875,linen
16.707343449634767,3.14543360726644,0.2719927191092779,0.056519695631557024,0.8143851331692314,0.0032160702504363883,16.707343449634756,0.271992719109278,5.707954854673984,8.704729736178173,3.1301036729202947,0.00816482843137255,0.0172882080078125,0.033203125,0.057830810546875,0.192108154296875,0.3397674560546875,0.188201904296875,0.073974609375,0.03607177734375,0.022918701171875,0.03863525390625,linen
15.650714433751437,3.096747540008649,0.26940217407700207,0.057317283127110125,0.8084191979803589,0.00330655382065789,15.65071443375144,0.26940217407700207,5.636522537724819,8.597099573485835,3.082872715578975,0.006862745098039216,0.0181884765625,0.0346527099609375,0.0614166259765625,0.1825103759765625,0.34197998046875,0.1961822509765625,0.0691680908203125,0.037567138671875,0.0201568603515625,0.038177490234375,linen
29.087278811034242,4.151045751633989,0.21769022695600268,0.04258252918916356,0.8196519079775768,0.0018246546696977309,29.087278811034214,0.21769022695600226,6.12963059499445,9.521477268819392,3.508025639384579,0.004886642156862745,0.0180206298828125,0.0320281982421875,0.06005859375,0.204864501953125,0.32366943359375,0.1904449462890625,0.075927734375,0.0343475341796875,0.0216064453125,0.039031982421875,linen
35.387205326677275,4.665768409385811,0.19167287117707407,0.04236639157957784,0.7222320536635799,0.0018027944958406848,35.38720532667723,0.1916728711770741,5.915922678338685,9.455493698483279,3.650255077903679,0.004105392156862745,0.02911376953125,0.0477752685546875,0.0729217529296875,0.1750640869140625,0.270172119140625,0.18707275390625,0.0843658447265625,0.0461273193359375,0.029937744140625,0.0574493408203125,linen
37.495263720684434,4.752932255622836,0.19261605488849348,0.04284320298741911,0.6966694116819743,0.0018582304147064148,37.49526372068435,0.19261605488849343,5.883099415156362,9.43444441501161,3.660278986180286,0.005162377450980392,0.0283355712890625,0.053680419921875,0.0733642578125,0.1613922119140625,0.2930450439453125,0.16741943359375,0.074127197265625,0.05963134765625,0.0307464599609375,0.058258056640625,linen
72.70437615640623,6.517118701340831,0.15245727790477268,0.03111792050992443,0.7266768595194474,0.0009795461902131488,72.70437615640617,0.1524572779047724,6.41729237138391,10.407461810367236,4.129447087380551,0.003630514705882353,0.029937744140625,0.0510101318359375,0.06622314453125,0.1716766357421875,0.291717529296875,0.1696624755859375,0.08013916015625,0.047698974609375,0.032196044921875,0.0597381591796875,linen
36.53663158400624,4.711863375865051,0.19238854033708688,0.042620388449507905,0.7134796793159296,0.0018244082150140621,36.536631584006145,0.19238854033708658,5.912105023070023,9.474529045750707,3.6723809101382567,0.0045802696078431375,0.029632568359375,0.04852294921875,0.072052001953125,0.1768341064453125,0.271514892578125,0.180938720703125,0.0802459716796875,0.0500640869140625,0.0318603515625,0.0583343505859375,linen
61.419813953767786,5.938438220876573,0.1719190627009151,0.037171469962172514,0.6769080971548878,0.0014268578234082447,61.41981395376777,0.171919062700915,6.149545216060133,9.96483365982079,3.932734081250034,0.005376838235294118,0.025970458984375,0.066070556640625,0.0698089599609375,0.1573944091796875,0.324249267578125,0.122406005859375,0.0598907470703125,0.07843017578125,0.0365753173828125,0.0592041015625,linen
65.51286150458944,6.131774122332752,0.16177083651224555,0.03414355461778402,0.7237822572181865,0.0011759597802167457,65.51286150458958,0.16177083651224555,6.323756010560892,10.23794556186388,4.055771710825281,0.004090073529411765,0.0278167724609375,0.046142578125,0.0684814453125,0.18951416015625,0.28289794921875,0.1623382568359375,0.07861328125,0.0499725341796875,0.0343017578125,0.0599212646484375,linen
33.70038358143504,4.46952213391483,0.20650863660982144,0.0458841313154112,0.7065965558320149,0.002121326293952896,33.70038358143502,0.20650863660982113,5.825682239512062,9.313237677397277,3.6055659792054113,0.0059742647058823525,0.02874755859375,0.0506134033203125,0.074737548828125,0.178253173828125,0.2686920166015625,0.1693572998046875,0.080718994140625,0.0562591552734375,0.0331878662109375,0.0594329833984375,linen
31.0593137555268,4.373396530180705,0.20321010283901428,0.04619727290984757,0.7003822753655574,0.0021447460367316888,31.05931375552672,0.20321010283901414,5.764685112266146,9.223022629576487,3.556070535783513,0.004963235294117647,0.0303192138671875,0.0496063232421875,0.0760345458984375,0.1712188720703125,0.2660064697265625,0.18035888671875,0.081207275390625,0.0542144775390625,0.0307159423828125,0.0603179931640625,linen
58.397618854527146,5.883373762495173,0.162674570826803,0.03408701571249908,0.7202280457717813,0.001167716223873205,58.397618854527096,0.1626745708268032,6.266160131908158,10.15338778670524,3.994013626524195,0.0033547794117647057,0.0284881591796875,0.04498291015625,0.077178955078125,0.1964874267578125,0.2535247802734375,0.170318603515625,0.0885467529296875,0.0505523681640625,0.031463623046875,0.0584564208984375,linen
42.55766590674266,5.189426888095916,0.16923457108221712,0.04106540220962296,0.6482995392680642,0.001693786356662844,42.5576659067426,0.16923457108221704,5.848710154169065,9.517069223926406,3.7664251319055353,0.003860294117647059,0.035308837890625,0.05267333984375,0.080291748046875,0.16748046875,0.2322998046875,0.1900634765625,0.091522216796875,0.048614501953125,0.03387451171875,0.06787109375,linen
46.55397278090163,5.349710598087272,0.17029800979418247,0.04091287820706495,0.620085879933447,0.0016935139697941523,46.553972780901574,0.17029800979418203,5.848935589215701,9.561403843359436,3.802088773650613,0.004427083333333333,0.03448486328125,0.061859130859375,0.0784149169921875,0.157196044921875,0.255462646484375,0.162017822265625,0.0793304443359375,0.0692901611328125,0.0344085693359375,0.067535400390625,linen
83.7301952824634,7.131808123678398,0.13502884721395308,0.030209019750115654,0.65968102438725,0.0009240862639009583,83.73019528246347,0.13502884721395278,6.338061070494261,10.434136843864243,4.22285827519901,0.003048406862745098,0.0338897705078125,0.05670166015625,0.0685577392578125,0.168243408203125,0.266693115234375,0.168701171875,0.08453369140625,0.0510101318359375,0.03448486328125,0.0671844482421875,linen
40.62399167387556,5.0065667351499386,0.17967342451327997,0.04266134378388613,0.6459608872494695,0.001826727279736619,40.62399167387544,0.1796734245132796,5.809627252300306,9.451799997785912,3.743268302013269,0.004595588235294118,0.035491943359375,0.0546112060546875,0.0789642333984375,0.1688995361328125,0.238739013671875,0.173583984375,0.0869598388671875,0.056915283203125,0.03631591796875,0.06951904296875,linen
68.2155351607556,6.289615562524025,0.16233333652806353,0.03738327617495325,0.6083002709887613,0.0014404610525019614,68.21553516075546,0.162333336528063,6.05995641976454,9.94008509302958,4.000600800933612,0.0055606617647058825,0.0273590087890625,0.0800628662109375,0.0743255615234375,0.157379150390625,0.2894744873046875,0.112396240234375,0.0626068115234375,0.090576171875,0.041412353515625,0.0644073486328125,linen
78.90764746431654,6.883555528522658,0.14083397742470086,0.03244482652613579,0.6509306919524397,0.0010615486564434261,78.9076474643166,0.14083397742470108,6.260511763743402,10.313100768672971,4.188902980219304,0.003553921568627451,0.0315399169921875,0.0530242919921875,0.071441650390625,0.1941986083984375,0.25469970703125,0.148284912109375,0.0812225341796875,0.05670166015625,0.0396575927734375,0.0692291259765625,linen
39.39376902813835,4.90321746744041,0.18502842939212946,0.04420271807295974,0.6412240096460533,0.001966137189578858,39.39376902813821,0.18502842939212905,5.769575215699033,9.37795729215458,3.7126901950008397,0.004810049019607843,0.0345916748046875,0.0571441650390625,0.0800018310546875,0.171966552734375,0.2321929931640625,0.1685943603515625,0.086273193359375,0.06170654296875,0.0370330810546875,0.07049560546875,linen
37.19923651660426,4.822999972967125,0.18306222309556547,0.04486995369974614,0.6270808073765441,0.002020592095398641,37.19923651660419,0.18306222309556527,5.705727014176677,9.293987517536237,3.6779487183328747,0.004258578431372549,0.036651611328125,0.0556488037109375,0.0827789306640625,0.1685333251953125,0.2238311767578125,0.179656982421875,0.087371826171875,0.058258056640625,0.0365447998046875,0.0707244873046875,linen
69.53038877775377,6.479569561586892,0.1469995078009176,0.03324532150566575,0.6411644791466711,0.0011118469707813933,69.53038877775376,0.14699950780091758,6.175633892355753,10.187133385749028,4.112819151713792,0.0030254289215686275,0.0361175537109375,0.05267333984375,0.083221435546875,0.1781005859375,0.22357177734375,0.16998291015625,0.091583251953125,0.0543975830078125,0.0373687744140625,0.0729827880859375,linen
44.22255921700784,5.31278866601787,0.163855099101872,0.042831938247048396,0.5719180878655059,0.001841125821305872,44.222559217007884,0.16385509910187193,5.703527842439996,9.410610754239745,3.789498314928869,0.004212622549019608,0.045074462890625,0.0612945556640625,0.0836181640625,0.1561431884765625,0.1873626708984375,0.187744140625,0.10015869140625,0.055023193359375,0.03973388671875,0.0838470458984375,linen
48.049796787894195,5.507386086481162,0.16100177306933283,0.04271666070815959,0.5358756310779196,0.0018354514727226326,48.049796787894074,0.16100177306933244,5.689284469573801,9.446739810990543,3.8339579548843057,0.0043504901960784315,0.044952392578125,0.070068359375,0.0844879150390625,0.1504974365234375,0.190277099609375,0.1666412353515625,0.09100341796875,0.0737457275390625,0.041778564453125,0.0865478515625,linen
83.39700056769028,7.248527294189723,0.12721632198487492,0.031553840670250674,0.578053603329195,0.001005423421129012,83.39700056769031,0.12721632198487473,6.156378357888569,10.272044768152936,4.217989699898793,0.0031096813725490194,0.0436248779296875,0.0661773681640625,0.0725860595703125,0.1507568359375,0.2263031005859375,0.16998291015625,0.0914306640625,0.05755615234375,0.039825439453125,0.081756591796875,linen
33.76777110966941,4.603670943867742,0.18975838893774405,0.04855655329999292,0.5998432520382496,0.0023637310319284312,33.767771109669354,0.18975838893774408,5.576199645620273,9.101743870488953,3.6128830330099633,0.005244136870434448,0.0366058349609375,0.05712890625,0.0897216796875,0.1728973388671875,0.2062530517578125,0.1698150634765625,0.0942535400390625,0.0610809326171875,0.03912353515625,0.0731201171875,linen
76.96046193170909,6.753679294021534,0.14792540651161068,0.036465793338810074,0.5365684760974304,0.0013597667800517264,76.96046193170895,0.14792540651161035,6.00584548080313,10.000332616313264,4.101203757513022,0.0047181372549019605,0.030975341796875,0.0876007080078125,0.08331298828125,0.16534423828125,0.2402496337890625,0.10491943359375,0.0647735595703125,0.1012115478515625,0.048065185546875,0.07354736328125,linen
87.89080556456648,7.378410872621104,0.12834934979952992,0.032167790644394526,0.5756277773755205,0.001042028148148925,87.8908055645665,0.12834934979952983,6.169265471814892,10.307078886102405,4.26446168928562,0.0035768995098039214,0.0355224609375,0.0585784912109375,0.080841064453125,0.199859619140625,0.2175140380859375,0.1270904541015625,0.0832977294921875,0.0682220458984375,0.04791259765625,0.0811614990234375,linen
42.04622601583523,5.136304531310065,0.1729787633636738,0.04504563543033362,0.5671840711265962,0.0020386372927022893,42.04622601583525,0.17297876336367382,5.648782493613002,9.308801976237197,3.755656576983754,0.004825367647058824,0.042572021484375,0.0636444091796875,0.08538818359375,0.1655731201171875,0.1943359375,0.1603240966796875,0.0887908935546875,0.0709686279296875,0.0445404052734375,0.0838623046875,linen
40.544999113922565,5.073932907415419,0.17139642704639088,0.0459290590877153,0.5402315163828877,0.0021149789524590175,40.54499911392253,0.1713964270463907,5.579323160889707,9.231761885668865,3.733408195832914,0.00461361014994233,0.04644775390625,0.063079833984375,0.089263916015625,0.153656005859375,0.1805267333984375,0.174957275390625,0.0920867919921875,0.064483642578125,0.0457611083984375,0.0897369384765625,linen
69.82791207107852,6.584207456266814,0.14058273778432906,0.03480607245873019,0.5675777374041107,0.0012181062304290672,69.82791207107843,0.14058273778432856,6.017077500290558,10.03807959641125,4.112455795081923,0.0030330882352941177,0.045684814453125,0.0621185302734375,0.083953857421875,0.16094970703125,0.19281005859375,0.1656951904296875,0.0952606201171875,0.0608062744140625,0.0442962646484375,0.0884246826171875,linen
45.8566638582517,5.415261573072855,0.1613755411038037,0.04576833214809771,0.47170443049194544,0.0021040403775071247,45.856663858251636,0.16137554110380353,5.527055418553179,9.259439940251276,3.806893110168626,0.005361519607843137,0.059539794921875,0.0798492431640625,0.0787506103515625,0.12054443359375,0.155609130859375,0.174896240234375,0.10498046875,0.0698394775390625,0.0476531982421875,0.10833740234375,linen
45.06629745770863,5.304375600730485,0.1681898904853577,0.0476477217418319,0.45025525963747765,0.002277448738890091,45.06629745770857,0.16818989048535737,5.473703225786251,9.200428724095497,3.8028276554359133,0.005392156862745098,0.0592498779296875,0.0822296142578125,0.085845947265625,0.125457763671875,0.1422576904296875,0.166717529296875,0.0999298095703125,0.0788421630859375,0.0509033203125,0.1085662841796875,linen
84.48574618235769,7.339783842152037,0.12405155714470613,0.03299091201231842,0.49548707327982744,0.0010984812241054682,84.48574618235774,0.12405155714470593,6.008029382508322,10.148164452364703,4.2187909837205275,0.002696078431372549,0.0544891357421875,0.080291748046875,0.072509765625,0.1259613037109375,0.19012451171875,0.167724609375,0.089935302734375,0.0718841552734375,0.0461883544921875,0.10089111328125,linen
43.140440170247054,5.225136741277381,0.16870186726730863,0.04636951940711587,0.5052588560207064,0.0021556510981487207,43.14044017024702,0.16870186726730851,5.55461873032789,9.254163255231408,3.778796423229725,0.0058363970588235295,0.0421905517578125,0.0677642822265625,0.1032867431640625,0.1699371337890625,0.1593170166015625,0.1429901123046875,0.102813720703125,0.074432373046875,0.0489959716796875,0.0882720947265625,linen
48.7658438911718,5.472638213067086,0.1687274996047994,0.04432995350786705,0.5125430292597739,0.0019865337753393426,48.76584389117166,0.1687274996047991,5.655124945693486,9.400405514365382,3.8283373493320534,0.005422794117647059,0.03997802734375,0.082916259765625,0.0883941650390625,0.159393310546875,0.189422607421875,0.1346282958984375,0.0904388427734375,0.084320068359375,0.04791259765625,0.0825958251953125,linen
74.60575092812866,6.846534911452311,0.13599891414624748,0.03585790059935029,0.5194282318964693,0.0012949671017964386,74.6057509281286,0.13599891414624732,5.95060057586748,9.977843555465833,4.143300925571257,0.004151348039215686,0.040679931640625,0.066925048828125,0.08544921875,0.19366455078125,0.1894073486328125,0.1133880615234375,0.0815887451171875,0.079559326171875,0.056793212890625,0.0925445556640625,linen
41.80917438605353,5.143888408304496,0.17104549859098667,0.04697633165497847,0.5046554659749523,0.0022127739685146286,41.80917438605344,0.17104549859098647,5.524839781539666,9.194774817985394,3.7521261003773176,0.004721261053440984,0.051971435546875,0.0713348388671875,0.0890960693359375,0.1470947265625,0.1575775146484375,0.16259765625,0.0971527099609375,0.0734405517578125,0.0498504638671875,0.099884033203125,linen
41.00622853890342,5.090442933607268,0.17295142985391626,0.0494985784725306,0.4447455845912707,0.002455401484249315,41.00622853890331,0.17295142985391582,5.404210672091602,9.069749942504396,3.7415440723852447,0.005598958333333333,0.0579833984375,0.0766448974609375,0.0858306884765625,0.1350250244140625,0.1431121826171875,0.1643218994140625,0.10107421875,0.0731964111328125,0.0523529052734375,0.1104583740234375,linen
74.62363677732128,6.865535265883302,0.13359439313572186,0.035334174337138285,0.4868559530373472,0.0012560679391897625,74.62363677732122,0.13359439313572138,5.908585913841962,9.9811910503546,4.148256494092557,0.0032475490196078433,0.058135986328125,0.077423095703125,0.078704833984375,0.1226654052734375,0.1739501953125,0.166534423828125,0.097808837890625,0.07098388671875,0.04754638671875,0.1062469482421875,linen
35.21928190179266,4.71082743115629,0.1862354704377844,0.05629743599188946,0.3835765840488096,0.0031850168485922617,35.21928190179258,0.186235470437784,5.181736343791474,8.721742569314916,3.627094692151111,0.008455882352941176,0.0712127685546875,0.0970611572265625,0.0697174072265625,0.0901947021484375,0.1320953369140625,0.1692962646484375,0.1074676513671875,0.084259033203125,0.0523529052734375,0.1263427734375,linen
35.73167647359192,4.697917943218948,0.1899012532963766,0.05655440447890104,0.38414616949920327,0.003202432574760033,35.73167647359189,0.18990125329637664,5.190976767012243,8.765006727849642,3.6599719086152165,0.007659313725490196,0.071319580078125,0.091949462890625,0.082733154296875,0.1062469482421875,0.11029052734375,0.151611328125,0.1066131591796875,0.0862274169921875,0.0609130859375,0.1320953369140625,linen
62.697044871563875,6.293223414672238,0.14554171157573254,0.03989349210144168,0.43835538480877784,0.0016058375519653007,62.69704487156382,0.14554171157573215,5.695648213680329,9.63541972441451,4.010275741490551,0.004059436274509804,0.0610809326171875,0.098541259765625,0.0761871337890625,0.1085968017578125,0.1502685546875,0.158538818359375,0.0921478271484375,0.0896759033203125,0.0531158447265625,0.111846923828125,linen
36.65238459967331,4.799162731881976,0.1835212282808273,0.05451759678323055,0.3949540920871315,0.0029766213289227116,36.6523845996732,0.18352122828082681,5.239286396634862,8.838925656362598,3.6780827623830863,0.007858455882352941,0.0547332763671875,0.080230712890625,0.1096954345703125,0.1454010009765625,0.11724853515625,0.1238250732421875,0.109283447265625,0.0873260498046875,0.0597381591796875,0.112518310546875,linen
45.280182516940656,5.273258557405796,0.17381333148226197,0.047770808916068296,0.45178502399319986,0.0023020014348608038,45.28018251694059,0.17381333148226177,5.4901604125075405,9.198692928450424,3.785360356400776,0.006464460784313725,0.0511016845703125,0.092926025390625,0.08404541015625,0.144256591796875,0.1588592529296875,0.1264801025390625,0.089263916015625,0.089874267578125,0.058746337890625,0.1044464111328125,linen
72.09670257533163,6.735163443747584,0.13702475902896988,0.03874681932479307,0.41169792661756593,0.0015066736080215832,72.09670257533159,0.1370247590289696,5.736230902021073,9.766515166303833,4.129185445380681,0.003936887254901961,0.0538330078125,0.0783233642578125,0.098052978515625,0.171630859375,0.1361236572265625,0.0980072021484375,0.076904296875,0.098876953125,0.070526123046875,0.1177215576171875,linen
34.052225210856435,4.648087739691462,0.18725867056074755,0.0541730116659047,0.43981889789190687,0.0029401366237869946,34.0522252108564,0.18725867056074746,5.2618912172240355,8.804501695217601,3.620462975562006,0.006387867647058823,0.05926513671875,0.081024169921875,0.0969390869140625,0.1261749267578125,0.128814697265625,0.15185546875,0.10888671875,0.07781982421875,0.0564117431640625,0.1128082275390625,linen
37.19205931913207,4.827508935866007,0.1841174479879337,0.05598792845365422,0.3555264414884752,0.0031444479818742922,37.192059319132056,0.18411744798793367,5.176655366102726,8.764242575531467,3.6679371450086053,0.008302696078431373,0.0682373046875,0.09747314453125,0.074981689453125,0.10565185546875,0.1299896240234375,0.1455841064453125,0.1044769287109375,0.08551025390625,0.059844970703125,0.1282501220703125,linen
53.80861046532595,5.805169210760284,0.15720243435699738,0.043456352467577765,0.4307422430785487,0.0019005613982514854,53.80861046532583,0.15720243435699707,5.574915769096904,9.42012667401617,3.9175991146521953,0.004848345588235294,0.067901611328125,0.097808837890625,0.0693817138671875,0.094879150390625,0.14617919921875,0.1640472412109375,0.099639892578125,0.08294677734375,0.053863525390625,0.12335205078125,linen
34.12898425485394,4.577026594338717,0.19765475158163498,0.060725080298054415,0.2978454184285178,0.003704531757245358,34.128984254853904,0.1976547515816349,5.022236742069952,8.54260852520488,3.610616451735866,0.01014093137254902,0.0760498046875,0.1190338134765625,0.06689453125,0.078399658203125,0.09881591796875,0.1444549560546875,0.1052398681640625,0.096954345703125,0.0672454833984375,0.14691162109375,linen
31.43299540741547,4.367403838067085,0.20596856617205211,0.062007504141129446,0.35472140974991384,0.0038497097789503476,31.432995407415415,0.20596856617205217,5.050483258654101,8.534631639094963,3.5804188879076566,0.009466911764705882,0.07672119140625,0.1056671142578125,0.0806884765625,0.093292236328125,0.0942840576171875,0.1314239501953125,0.104644775390625,0.0969085693359375,0.0692596435546875,0.1471099853515625,linen
59.29013089917337,6.020821468906182,0.1561643569600767,0.04422372674160262,0.3424283266366532,0.00196923834388383,59.29013089917339,0.15616435696007658,5.490722925839496,9.401572684311628,3.9780083873158536,0.00505514705882353,0.069091796875,0.1163177490234375,0.0742034912109375,0.099853515625,0.116180419921875,0.1268768310546875,0.08837890625,0.1055450439453125,0.0684661865234375,0.1350860595703125,linen
39.33524862733084,4.9359171502547,0.18153844890873017,0.05580894318095514,0.31384784046107217,0.003118440214037459,39.335248627330834,0.18153844890872994,5.151568568042614,8.798373236934687,3.728208473742419,0.007299325980392157,0.0725250244140625,0.0937347412109375,0.10528564453125,0.123565673828125,0.0838775634765625,0.0914459228515625,0.094818115234375,0.1082611083984375,0.0803680419921875,0.1461181640625,linen
41.59689755742989,5.079098934304113,0.1771502296378315,0.051099428498180305,0.4127070072717428,0.0026230501435001666,41.596897557429834,0.17715022963783122,5.360756869724806,9.031520188366134,3.7474494680332966,0.0071384803921568625,0.068939208984375,0.0955352783203125,0.0850372314453125,0.1197509765625,0.12298583984375,0.1132659912109375,0.08673095703125,0.093841552734375,0.0757293701171875,0.13818359375,linen
58.317739826629264,5.995025636173581,0.15450711124653324,0.04561677416071755,0.3381285858046505,0.002085958357251299,58.31773982662918,0.1545071112465331,5.464561453712176,9.352352439670089,3.989743111418383,0.004825367647058824,0.0712890625,0.0912628173828125,0.09710693359375,0.1356353759765625,0.1041259765625,0.0851287841796875,0.0739898681640625,0.1104888916015625,0.0855560302734375,0.145416259765625,linen
31.454502324827043,4.427756842320266,0.19874181728481155,0.059468241745973024,0.36680137290563936,0.003541122627622314,31.454502324826986,0.1987418172848115,5.076780803747251,8.575519655904081,3.5808282404844354,0.007720588235294118,0.072296142578125,0.09552001953125,0.094390869140625,0.109619140625,0.09295654296875,0.1208648681640625,0.1078338623046875,0.089569091796875,0.07440185546875,0.142547607421875,linen
27.438364916738756,4.070472609693386,0.22029720349443488,0.07187428417335115,0.2380733291412137,0.005177088732957698,27.438364916738756,0.22029720349443488,4.765451554829163,8.139005229663407,3.47301717245015,0.013878676470588235,0.07586669921875,0.1121063232421875,0.07672119140625,0.093109130859375,0.09405517578125,0.119903564453125,0.10064697265625,0.1003570556640625,0.074981689453125,0.152252197265625,linen
43.33707801686861,5.110942696318726,0.18297965300276484,0.051689021653685684,0.3635100625943464,0.0026860434495057446,43.33707801686851,0.18297965300276442,5.305314605596024,9.005342623218185,3.7776227199502257,0.007506127450980392,0.073211669921875,0.1160430908203125,0.0711517333984375,0.088165283203125,0.10821533203125,0.135101318359375,0.098114013671875,0.095855712890625,0.0708770751953125,0.1432647705078125,linen
23.809405532127087,3.7575165050701664,0.23843270107253897,0.07281996285978312,0.32151050139468856,0.005319738616674088,23.809405532127066,0.23843270107253883,4.80245041135769,8.073997842000878,3.373227188023142,0.013893995098039215,0.082122802734375,0.1223602294921875,0.0697479248046875,0.082366943359375,0.085662841796875,0.106658935546875,0.0888214111328125,0.1063232421875,0.088531494140625,0.1674041748046875,linen
18.91318280529126,3.3539876639994257,0.260963380724305,0.07958593580862147,0.37179759644477567,0.00634189675646164,18.913182805291235,0.26096338072430486,4.718975867632968,7.842910514535307,3.2426135097970823,0.015425857843137256,0.081634521484375,0.1145477294921875,0.077484130859375,0.088104248046875,0.0814208984375,0.1080322265625,0.0968475341796875,0.0988006591796875,0.0877685546875,0.1653594970703125,linen
35.656990610582525,4.605153877114567,0.20088923494954697,0.05700331316774093,0.38416004495653033,0.003262167420399384,35.65699061058247,0.20088923494954697,5.196810576843713,8.756498827047285,3.6454437161348077,0.00818014705882353,0.080535888671875,0.118194580078125,0.0740814208984375,0.089111328125,0.094329833984375,0.102691650390625,0.0857391357421875,0.1067657470703125,0.087249755859375,0.1613006591796875,linen
20.232814061899305,3.4631146373990824,0.25465018687442487,0.07514119769394448,0.4057681494603879,0.005653649506362339,20.23281406189927,0.2546501868744249,4.828976582533432,7.993213732405524,3.2852379938914003,0.013756127450980392,0.0922088623046875,0.1038665771484375,0.0862884521484375,0.0951080322265625,0.0697784423828125,0.0789794921875,0.08319091796875,0.1134033203125,0.1017913818359375,0.175384521484375,linen
26.945940038086395,4.01829333970108,0.22381135065979976,0.0603563006884704,0.5052906237261074,0.0036614398331342654,26.945940038086313,0.2238113506597993,5.220528753187394,8.581542659650742,3.459646167620744,0.009145220588235295,0.085601806640625,0.1061859130859375,0.0756378173828125,0.0950775146484375,0.105743408203125,0.08856201171875,0.0758819580078125,0.1067657470703125,0.0946044921875,0.1659393310546875,linen
35.01550001802198,4.571811743079585,0.20083595113416428,0.05701313334957464,0.42411314841455466,0.0032571922867493655,35.01550001802191,0.2008359511341638,5.247161201565461,8.783512476307965,3.650106660424874,0.007460171568627451,0.086761474609375,0.09716796875,0.088958740234375,0.105255126953125,0.090240478515625,0.0834808349609375,0.075225830078125,0.112213134765625,0.094757080078125,0.1659393310546875,linen
18.77396123185796,3.3233575878267962,0.2653364003457691,0.07803340513103739,0.3978015286935898,0.006099012105604351,18.77396123185794,0.26533640034576933,4.760278629315489,7.8845093236798895,3.23841876498898,0.015410539215686275,0.086517333984375,0.1121368408203125,0.07904052734375,0.0845184326171875,0.0708770751953125,0.1011810302734375,0.09564208984375,0.098602294921875,0.0959930419921875,0.1754913330078125,linen
21.805310622717247,3.545918652080932,0.2565559259761272,0.08575431125899151,0.18610773271963088,0.00737173032896894,21.805310622717222,0.2565559259761269,4.512719173189,7.708061308706608,3.315739898103238,0.02107843137254902,0.086029052734375,0.12335205078125,0.0690765380859375,0.07818603515625,0.078155517578125,0.0959930419921875,0.0855865478515625,0.1104888916015625,0.095001220703125,0.178131103515625,linen
26.091392072760474,3.8603444888984995,0.24193080761756464,0.06536250008633876,0.44954777793362055,0.004297340949694773,26.091392072760478,0.24193080761756416,5.08878137443973,8.413882651866476,3.4313071703021016,0.0125,0.076629638671875,0.1177520751953125,0.071807861328125,0.0924530029296875,0.095001220703125,0.106536865234375,0.0876007080078125,0.1021881103515625,0.0877685546875,0.162261962890625,linen
0.6950420060793927,0.5412712208044989,0.744690562006205,0.1908854299694896,0.9702935745833428,0.03662657177249401,0.6950420060793925,0.744690562006205,4.656993460466854,5.389770423002387,1.2737178825156392,0.09802389705882353,0.0110015869140625,0.0302276611328125,0.026153564453125,0.1348419189453125,0.310089111328125,0.23138427734375,0.083099365234375,0.052154541015625,0.0619964599609375,0.059051513671875,orange_peel
0.4834301861063054,0.41499382749423297,0.7993298981267101,0.2658413189517882,0.9549414669904904,0.07085762273347398,0.4834301861063053,0.7993298981267103,4.0106652732242924,4.541973023508051,1.108823091705882,0.1582720588235294,0.0168304443359375,0.04290771484375,0.02984619140625,0.1329345703125,0.215362548828125,0.2057952880859375,0.098236083984375,0.07464599609375,0.09356689453125,0.089874267578125,orange_peel
0.9651656664504045,0.6500430873942721,0.7057159334128799,0.17541649925304295,0.9670640076559378,0.030888355932057417,0.9651656664504038,0.7057159334128801,4.816005411328819,5.736884059713617,1.4425411381880056,0.08293504901960784,0.02203369140625,0.046173095703125,0.0422821044921875,0.140350341796875,0.25299072265625,0.18267822265625,0.08868408203125,0.06414794921875,0.070770263671875,0.0898895263671875,orange_peel
0.43000373954728954,0.37630612324586715,0.817178129521788,0.26483705249839773,0.9606052258948675,0.0702699563846621,0.4300037395472895,0.8171781295217881,4.075341769066608,4.546360122374242,1.0551834623953036,0.15300245098039217,0.0175933837890625,0.0468902587890625,0.02752685546875,0.1294097900390625,0.1943511962890625,0.1966094970703125,0.105560302734375,0.0789794921875,0.106536865234375,0.0965423583984375,orange_peel
0.46018325283544786,0.39991935193194955,0.8060113281324754,0.26297764105263727,0.946276593553536,0.06929593396301321,0.4601832528354479,0.8060113281324751,3.9484697907922994,4.45975196583654,1.0845272385749825,0.14359681372549019,0.0253448486328125,0.0592803955078125,0.0358123779296875,0.1214599609375,0.16156005859375,0.1775665283203125,0.108551025390625,0.0869140625,0.104583740234375,0.118927001953125,orange_peel
0.7673308042579782,0.5688209763071905,0.7349303572842998,0.20660687791042948,0.9604531960799764,0.0427926586320878,0.7673308042579776,0.7349303572843,4.472365271440936,5.2617525313385425,1.3260421918098984,0.1075061274509804,0.026275634765625,0.052978515625,0.0437774658203125,0.1365966796875,0.21295166015625,0.173675537109375,0.09765625,0.071441650390625,0.08087158203125,0.1037750244140625,orange_peel
0.49886206627258745,0.4246786392252981,0.7950535146620648,0.23010274079871706,0.9653536900706033,0.053093062711975315,0.4988620662725874,0.7950535146620643,4.320074766788741,4.865525592839809,1.1209870893392297,0.11583946078431373,0.0143890380859375,0.040618896484375,0.02752685546875,0.138702392578125,0.22943115234375,0.2084503173828125,0.09783935546875,0.0715484619140625,0.088592529296875,0.0829010009765625,orange_peel
0.7607414966599382,0.5846008596453292,0.7252167976573193,0.1743013550392647,0.9686344544365164,0.030502918568695043,0.7607414966599385,0.7252167976573198,4.749534740376005,5.558776163451739,1.3161444668345006,0.07803308823529412,0.015045166015625,0.0333709716796875,0.033721923828125,0.146026611328125,0.2965087890625,0.2123565673828125,0.0857391357421875,0.0530548095703125,0.0586700439453125,0.0655059814453125,orange_peel
0.7855875895088438,0.5791799277921965,0.7305756345913161,0.1873519621528123,0.9647987337616842,0.035196167967118296,0.7855875895088427,0.7305756345913158,4.66964817919858,5.478900626076729,1.33730414766441,0.07965686274509803,0.0261077880859375,0.0529632568359375,0.0458526611328125,0.1363372802734375,0.2115325927734375,0.1753387451171875,0.0990142822265625,0.0708160400390625,0.0807037353515625,0.1013336181640625,orange_peel
1.849215025470974,0.9073924392060749,0.6311936490255803,0.15408488469755355,0.9374466288812491,0.02387552312406537,1.849215025470973,0.6311936490255804,4.841452827597061,6.1292090774502554,1.7823758082916779,0.06904105392156863,0.01312255859375,0.0291900634765625,0.0407257080078125,0.165557861328125,0.3118743896484375,0.207305908203125,0.084564208984375,0.0468597412109375,0.0489349365234375,0.0518646240234375,orange_peel
1.2180276666426384,0.6738673376826232,0.7121462338431936,0.22161138666294827,0.9212041440129259,0.04932230497123396,1.2180276666426373,0.7121462338431934,4.274282319236805,5.224739454344931,1.533708966058247,0.13232230392156863,0.014923095703125,0.0367431640625,0.037322998046875,0.1504058837890625,0.2594146728515625,0.208892822265625,0.096221923828125,0.058349609375,0.0688018798828125,0.0689239501953125,orange_peel
2.6247761227652826,1.0392266045511367,0.6072185810000192,0.14147793301600275,0.9419464964751836,0.020112996833895173,2.6247761227652826,0.60721858100002,5.10615958851217,6.520950795140882,1.9259019701357953,0.059252450980392155,0.0199737548828125,0.038543701171875,0.0509033203125,0.1605987548828125,0.284088134765625,0.188323974609375,0.08795166015625,0.051788330078125,0.0514068603515625,0.0664215087890625,orange_peel
1.0819894091214923,0.593925383266053,0.7433019261584846,0.2233228104420336,0.926390068794971,0.05001358199481692,1.0819894091214917,0.7433019261584853,4.314538152942746,5.1578920317422305,1.4304279012421799,0.12450980392156863,0.017822265625,0.04315185546875,0.03839111328125,0.14605712890625,0.2190399169921875,0.199188232421875,0.1021575927734375,0.068756103515625,0.080474853515625,0.0849609375,orange_peel
0.9725745206170722,0.585243776432143,0.7401906618479563,0.21518366050529655,0.9264789331636754,0.046494163229908875,0.9725745206170704,0.7401906618479555,4.293709710238598,5.125001286437678,1.3855416053708276,0.1100796568627451,0.0211029052734375,0.045989990234375,0.0425262451171875,0.13836669921875,0.22003173828125,0.2026214599609375,0.10186767578125,0.0679168701171875,0.0738525390625,0.085723876953125,orange_peel
1.8166259521578272,0.8290061364619417,0.6614826751688954,0.1704515860960157,0.9285162774320532,0.029142578343538655,1.8166259521578239,0.6614826751688956,4.727834341105918,5.914833728562361,1.6883466526309028,0.0802389705882353,0.025146484375,0.0485076904296875,0.0505523681640625,0.150177001953125,0.230926513671875,0.1844329833984375,0.09814453125,0.06109619140625,0.0640411376953125,0.08697509765625,orange_peel
1.4316901101739732,0.731802897323147,0.6947021430545449,0.1889505359398576,0.9319882607395588,0.035836442198401014,1.4316901101739714,0.6947021430545446,4.587937876322252,5.628122085676274,1.6069405730878463,0.09310661764705883,0.016021728515625,0.03662109375,0.040740966796875,0.15423583984375,0.2603302001953125,0.2031097412109375,0.0978240966796875,0.057769775390625,0.0646820068359375,0.06866455078125,orange_peel
2.3260543420799724,1.0091661560457534,0.6088597003882597,0.15110464235735457,0.9241384807514292,0.02292508282425184,2.3260543420799693,0.6088597003882599,4.864059435230248,6.267807578149888,1.90705003163002,0.06902573529411765,0.0171051025390625,0.0345458984375,0.0462799072265625,0.1716156005859375,0.29150390625,0.184356689453125,0.08837890625,0.0520477294921875,0.0533447265625,0.060821533203125,orange_peel
2.102547863201658,0.9168574436514838,0.6357810612792786,0.14963297440687473,0.9382782995755778,0.02247274890870822,2.102547863201653,0.6357810612792789,4.9683593757687605,6.260515870572863,1.7884015026474076,0.05974264705882353,0.022003173828125,0.044036865234375,0.0510406494140625,0.1605682373046875,0.2531280517578125,0.1849365234375,0.093963623046875,0.0560302734375,0.0576629638671875,0.076629638671875,orange_peel
5.151903384515579,1.458062644175319,0.532197128742657,0.13043476805426008,0.856523352534282,0.017106965326469475,5.151903384515571,0.5321971287426567,4.96428245659433,6.819705539404888,2.3178898651112556,0.05582107843137255,0.0260772705078125,0.0479888916015625,0.0631256103515625,0.1619873046875,0.2408447265625,0.1737060546875,0.0955963134765625,0.0615386962890625,0.0557403564453125,0.073394775390625,orange_peel
3.7569248305940084,1.167222312331798,0.5996623698380086,0.17408993932734454,0.8340666096991148,0.030477003481755388,3.756924830594002,0.5996623698380096,4.531983618690182,6.075020178199779,2.0792056926170206,0.09244791666666667,0.0236053466796875,0.046783447265625,0.05517578125,0.1531829833984375,0.234466552734375,0.19061279296875,0.1008148193359375,0.06134033203125,0.0586395263671875,0.07537841796875,orange_peel
5.5391679282007,1.4343166390330657,0.5426784431537881,0.12752604396001527,0.8777654408148102,0.016341772505805256,5.539167928200692,0.5426784431537891,5.102306134028867,6.910125537265754,2.2771610572191348,0.050949754901960784,0.0279998779296875,0.04931640625,0.0626983642578125,0.1594085693359375,0.2342529296875,0.1766357421875,0.0978240966796875,0.057647705078125,0.0549468994140625,0.0792694091796875,orange_peel
1.8304958879998128,0.7664126928344897,0.6956728543896938,0.2207171574916243,0.8553972531507287,0.04885825844543526,1.8304958879998074,0.6956728543896937,4.136256629448144,5.2278799044737685,1.6520722531498144,0.11593137254901961,0.0250701904296875,0.0513763427734375,0.0506744384765625,0.144927978515625,0.194366455078125,0.18536376953125,0.1079864501953125,0.0699920654296875,0.07623291015625,0.0940093994140625,orange_peel
1.6527117124423327,0.7193194774846241,0.7055353562382916,0.21659745844914818,0.8661253614921547,0.04712176140165865,1.6527117124423298,0.7055353562382907,4.182217432095344,5.197210587677148,1.5612128377547028,0.11660539215686275,0.0254364013671875,0.0522613525390625,0.0474853515625,0.137420654296875,0.203857421875,0.193603515625,0.1041717529296875,0.0694427490234375,0.0723724365234375,0.0939483642578125,orange_peel
2.7243431462658645,1.0056667657872014,0.6184426598684265,0.16893080801247548,0.8712352783827594,0.028629282516066192,2.724343146265859,0.6184426598684274,4.57309945520982,5.98719705302853,1.878894596273212,0.07582720588235294,0.0300750732421875,0.05426025390625,0.0614013671875,0.1459197998046875,0.209228515625,0.1779327392578125,0.1025390625,0.064300537109375,0.0620269775390625,0.092315673828125,orange_peel
3.111012591311037,1.0889021049596337,0.6082564264192942,0.15481459566524058,0.8800314482768973,0.024077134225037187,3.111012591311034,0.608256426419294,4.76082169351059,6.27608348965922,2.0031056220884977,0.07120098039215686,0.024322509765625,0.04742431640625,0.05889892578125,0.15460205078125,0.2239990234375,0.1839141845703125,0.1001739501953125,0.0640716552734375,0.0618438720703125,0.08074951171875,orange_peel
6.90709620398405,1.714166711721453,0.48740516941941947,0.12051997191115689,0.8320278900579099,0.014586079178186426,6.907096203984043,0.4874051694194197,5.021705596139924,7.0784051456158155,2.501559424861065,0.04931066176470588,0.0284576416015625,0.0465545654296875,0.0672149658203125,0.1748504638671875,0.22906494140625,0.1668853759765625,0.0977630615234375,0.06060791015625,0.0546417236328125,0.0739593505859375,orange_peel
4.325629986063064,1.2639765655036561,0.5682601086345183,0.13007809153871908,0.8963546337970971,0.01699023474732639,4.325629986063053,0.5682601086345179,5.091502766382905,6.771846362844084,2.130990915459584,0.04941789215686274,0.028778076171875,0.04827880859375,0.063018798828125,0.1553497314453125,0.226165771484375,0.1838836669921875,0.098724365234375,0.0596923828125,0.05535888671875,0.08074951171875,orange_peel
5.150466707516349,1.4617317558150733,0.5306544444347169,0.12547511634559327,0.8577040680755555,0.015829254957239667,5.150466707516339,0.5306544444347163,4.997552078224061,6.869037567700479,2.319958620348217,0.048161764705882355,0.0269927978515625,0.0477447509765625,0.063079833984375,0.1647491455078125,0.2311859130859375,0.1756134033203125,0.0984649658203125,0.06158447265625,0.055206298828125,0.07537841796875,orange_peel
5.275869076797393,1.478559147923877,0.5266666130487198,0.14378939017604478,0.7943128208323581,0.02080331620680914,5.275869076797385,0.5266666130487198,4.680840861150715,6.57027970882721,2.324494447426833,0.06847426470588236,0.027740478515625,0.0514678955078125,0.0654296875,0.1636962890625,0.2223052978515625,0.1725311279296875,0.097137451171875,0.06475830078125,0.05535888671875,0.0795745849609375,orange_peel
5.676486492574976,1.4706896536188037,0.5311823463828328,0.12376371784324526,0.8695481322839382,0.015394175102583747,5.676486492574971,0.5311823463828325,5.0956277816334445,6.947341330498833,2.295763717363,0.0477328431372549,0.027679443359375,0.049896240234375,0.066009521484375,0.1594390869140625,0.23052978515625,0.1802978515625,0.0988006591796875,0.0568695068359375,0.0532684326171875,0.07720947265625,orange_peel
2.277190308415035,0.9047362642973876,0.6532717590284711,0.20276136023569938,0.8196190680907471,0.04125873280608083,2.2771903084150327,0.6532717590284705,4.184986503867281,5.476757245961497,1.8118533941008281,0.10738357843137254,0.026947021484375,0.0524749755859375,0.05609130859375,0.1507720947265625,0.1959686279296875,0.17633056640625,0.107940673828125,0.0678558349609375,0.0720367431640625,0.0935821533203125,orange_peel
1.945705242574975,0.8316565293396807,0.6636185599999074,0.18834529588948712,0.8679637719358126,0.03566350355238529,1.945705242574971,0.6636185599999067,4.368492965303618,5.55991950621292,1.6746229346125947,0.09610906862745099,0.0268096923828125,0.0550994873046875,0.0542449951171875,0.1399993896484375,0.2156524658203125,0.184783935546875,0.1002197265625,0.065887451171875,0.0645294189453125,0.0927734375,orange_peel
3.2083813767541383,1.124756629060944,0.5838891688278944,0.14566886844023766,0.870497410803764,0.02129577868953871,3.208381376754133,0.5838891688278947,4.756978028039779,6.335152044137175,1.9835641067017327,0.05608149509803922,0.0294189453125,0.05352783203125,0.0661163330078125,0.1509552001953125,0.2108612060546875,0.1866607666015625,0.1030120849609375,0.05938720703125,0.0560150146484375,0.08404541015625,orange_peel
3.61677580437813,1.1957743866541743,0.5833476995975907,0.1504207224413226,0.8540455835715454,0.022742252571512713,3.6167758043781237,0.58334769959759,4.711923488629321,6.343991432639147,2.1014376520893085,0.06744791666666666,0.0276641845703125,0.0490264892578125,0.0614166259765625,0.1605682373046875,0.216339111328125,0.1701507568359375,0.0984039306640625,0.0690460205078125,0.0640869140625,0.0832977294921875,orange_peel
6.820047232434648,1.7492053987648988,0.47373146910727415,0.11908877605196701,0.8119305661510658,0.01424985121191762,6.82004723243464,0.47373146910727426,4.9392158520563765,7.04389370604965,2.515052159080551,0.04725796568627451,0.0312042236328125,0.0514984130859375,0.0715179443359375,0.1683197021484375,0.21807861328125,0.160797119140625,0.101104736328125,0.06256103515625,0.05609130859375,0.078826904296875,orange_peel
5.102956660298931,1.397258581435029,0.5394350546712222,0.12538618532363408,0.8727595736814492,0.015790856818279894,5.102956660298924,0.5394350546712227,5.057953963438086,6.867226301952087,2.2352073509407635,0.04537377450980392,0.0283355712890625,0.04986572265625,0.0675506591796875,0.1576385498046875,0.22723388671875,0.1781768798828125,0.0996856689453125,0.05841064453125,0.0544281005859375,0.07867431640625,orange_peel
5.1045873582276124,1.5122976439350282,0.5078313856582936,0.11728494700218453,0.8466043266386096,0.013844668419986786,5.1045873582276045,0.5078313856582931,4.970627753350532,6.924082338493433,2.338947311090867,0.03941482843137255,0.030181884765625,0.05322265625,0.0680694580078125,0.1629486083984375,0.21893310546875,0.1668548583984375,0.10186767578125,0.0634918212890625,0.0554656982421875,0.0789642333984375,orange_peel
5.325428020472907,1.5317166774798163,0.5075212960406337,0.1415663455080715,0.7618240400060763,0.02017662028215758,5.325428020472895,0.507521296040633,4.587314141571874,6.542367730993179,2.3541192543666796,0.06533394607843138,0.030303955078125,0.053466796875,0.0701904296875,0.1629180908203125,0.216033935546875,0.1631927490234375,0.096649169921875,0.0676422119140625,0.0563507080078125,0.083251953125,orange_peel
5.929928152633603,1.5401905517108818,0.510555712880957,0.11523178190986787,0.8604388822802371,0.013348069178342702,5.929928152633602,0.5105557128809571,5.121720835410552,7.062776607595484,2.34139291249737,0.03857230392156863,0.029998779296875,0.0529632568359375,0.0684814453125,0.1603546142578125,0.2222747802734375,0.1755523681640625,0.0986785888671875,0.05816650390625,0.053924560546875,0.0796051025390625,orange_peel
2.3077788891291844,0.9334319132064606,0.6410659861249088,0.18817395395283124,0.8288966030071292,0.0355470768277354,2.307778889129181,0.6410659861249097,4.2796625577395755,5.622567157449716,1.8351432055127368,0.08972120098039216,0.0276641845703125,0.0534820556640625,0.060546875,0.1534423828125,0.19207763671875,0.173736572265625,0.10406494140625,0.071044921875,0.070892333984375,0.093048095703125,orange_peel
2.2603596273068125,0.9308187656189972,0.6323395208876725,0.1742476003171943,0.8543219231445304,0.03053420668433489,2.260359627306805,0.6323395208876714,4.426718187147757,5.769741044418305,1.7830637983874702,0.08184742647058824,0.0291595458984375,0.05792236328125,0.0593109130859375,0.144683837890625,0.2061614990234375,0.1746368408203125,0.098541259765625,0.068023681640625,0.0645599365234375,0.0970001220703125,orange_peel
3.6743735282103103,1.2249671400422943,0.5585936944059804,0.13038568490027266,0.8733579688779207,0.017067013879895322,3.6743735282103036,0.5585936944059802,4.900102626731112,6.595183961128377,2.0681844400953056,0.04491421568627451,0.030059814453125,0.054229736328125,0.0671539306640625,0.15167236328125,0.21527099609375,0.1817169189453125,0.100189208984375,0.058624267578125,0.0555572509765625,0.0855255126953125,orange_peel
3.6425373504181118,1.2215851925941976,0.5716171456173218,0.13708812729469239,0.8711702563447219,0.01889005671791099,3.6425373504181087,0.5716171456173219,4.85513072312212,6.525233368933108,2.1139362268807185,0.05361519607843137,0.029449462890625,0.052215576171875,0.064483642578125,0.1562347412109375,0.212432861328125,0.1670989990234375,0.099395751953125,0.0688323974609375,0.0626983642578125,0.087158203125,orange_peel
6.690180219146486,1.8033145304690517,0.4503371194325567,0.11113006893572587,0.7897097805025936,0.012414519088226982,6.690180219146482,0.45033711943255694,4.888713523989503,7.080479607186255,2.5313607907422755,0.039307598039215685,0.0341033935546875,0.05841064453125,0.0736083984375,0.16717529296875,0.2036285400390625,0.151153564453125,0.1005401611328125,0.0654449462890625,0.0579681396484375,0.0879669189453125,orange_peel
5.309010056228378,1.4944948457324103,0.5101691176452341,0.11437079832242697,0.8701054129772183,0.013142635134312582,5.309010056228374,0.5101691176452346,5.127052620200943,7.057029226839271,2.3057966835545596,0.03569240196078431,0.0320892333984375,0.0533294677734375,0.0706329345703125,0.153289794921875,0.2197265625,0.1757659912109375,0.0984344482421875,0.05938720703125,0.0544891357421875,0.082855224609375,orange_peel
5.197926323409271,1.5614131433823546,0.4912312899552352,0.1138551416342817,0.8310444574110226,0.013062174468078263,5.197926323409265,0.49123128995523463,4.92061878134505,6.938161550022553,2.3588964016563496,0.04013480392156863,0.0334014892578125,0.0591888427734375,0.0716552734375,0.1601715087890625,0.2080535888671875,0.1526336669921875,0.0991973876953125,0.0675048828125,0.060089111328125,0.088104248046875,orange_peel
4.920245473495771,1.5308159271674355,0.4918381563730685,0.13134382152179436,0.7630454964760037,0.01733554006131967,4.920245473495771,0.4918381563730687,4.603903145767571,6.615138469629289,2.3319099446423825,0.04996936274509804,0.034027099609375,0.0588836669921875,0.0766143798828125,0.16156005859375,0.198516845703125,0.1508941650390625,0.0921478271484375,0.0718231201171875,0.0621795654296875,0.093353271484375,orange_peel
5.821276311995391,1.5672187379853928,0.49670660004947553,0.10748492955942318,0.8670811784947593,0.011617883397735378,5.821276311995386,0.4967066000494754,5.1885478658046456,7.186817953297686,2.352367158536154,0.03229166666666667,0.030487060546875,0.0552215576171875,0.071685791015625,0.1607513427734375,0.2154083251953125,0.1712188720703125,0.098297119140625,0.0597686767578125,0.054718017578125,0.0824432373046875,orange_peel
1.4113621714004232,0.7461613772347186,0.6846235321305553,0.1967303384860786,0.8902547821744334,0.0388315896650119,1.411362171400423,0.6846235321305552,4.3126599340771055,5.4226552631594025,1.602749195238046,0.0983609068627451,0.02276611328125,0.0499420166015625,0.0531005859375,0.156524658203125,0.2042999267578125,0.1799163818359375,0.10247802734375,0.067657470703125,0.0738983154296875,0.08941650390625,orange_peel
1.94561049235871,0.906740706699348,0.6318005051291669,0.16300289589601613,0.8873166216073523,0.026716085337417296,1.9456104923587083,0.6318005051291666,4.546295641753019,5.885457027410276,1.7542780599836212,0.06954656862745098,0.02874755859375,0.0557403564453125,0.0615081787109375,0.14959716796875,0.2069091796875,0.17364501953125,0.1012725830078125,0.0658111572265625,0.0640411376953125,0.0927276611328125,orange_peel
2.763121620891003,1.0809033935265298,0.5872466226016227,0.14066976983465143,0.8858267892218282,0.019867153264128072,2.763121620891004,0.5872466226016229,4.784830755961673,6.331054939327105,1.932896596075661,0.0491421568627451,0.028564453125,0.050750732421875,0.06634521484375,0.1573944091796875,0.216583251953125,0.17767333984375,0.1014404296875,0.0583343505859375,0.0582122802734375,0.0847015380859375,orange_peel
2.7694756824298388,1.0882515138408322,0.5914853969820366,0.13905373198842025,0.891100459534188,0.01943018212440426,2.7694756824298348,0.5914853969820366,4.8149135537033,6.36209927364886,1.9705414473020384,0.04969362745098039,0.02911376953125,0.053466796875,0.0682373046875,0.1573028564453125,0.20263671875,0.159423828125,0.09967041015625,0.0694732666015625,0.0672760009765625,0.0933990478515625,orange_peel
5.813314049884668,1.6952605067762418,0.4619489740832206,0.11252526789829354,0.8036907503053048,0.012731831741049434,5.813314049884659,0.4619489740832202,4.869239964149504,6.988810322884236,2.449575329431183,0.04146752450980392,0.0361785888671875,0.0594329833984375,0.0751800537109375,0.165863037109375,0.1955718994140625,0.1470947265625,0.0968780517578125,0.0689697265625,0.061981201171875,0.0928497314453125,orange_peel
5.053032172121306,1.503719618055557,0.4978819313507956,0.10373969603449815,0.8931462685872029,0.01081395795763173,5.0530321721213,0.4978819313507963,5.268467786473508,7.234559714680736,2.2956517941713974,0.028216911764705883,0.0302734375,0.0525360107421875,0.07232666015625,0.15765380859375,0.2249603271484375,0.1710662841796875,0.09698486328125,0.0595703125,0.0520782470703125,0.082550048828125,orange_peel
4.662242076364868,1.4789582732602862,0.503909323222426,0.12276338348475062,0.8247486546991447,0.015207230961002068,4.662242076364858,0.5039093232224255,4.819691650778133,6.7647485759942025,2.2874010865487255,0.04646139705882353,0.0338897705078125,0.0655059814453125,0.072296142578125,0.151153564453125,0.2026519775390625,0.14996337890625,0.091644287109375,0.072021484375,0.0648040771484375,0.0960693359375,orange_peel
4.472834531790659,1.4741323499375258,0.49858241012674287,0.13625656531139682,0.7977077623977724,0.018640144475163115,4.4728345317906575,0.4985824101267431,4.603126944915472,6.559476662353104,2.2858251857687444,0.05551470588235294,0.036895751953125,0.0637359619140625,0.0762786865234375,0.1576995849609375,0.1859283447265625,0.1404571533203125,0.0923919677734375,0.07586669921875,0.068817138671875,0.1019287109375,orange_peel
5.086573538422724,1.5011001928344891,0.5007814732993431,0.10577446678592443,0.8809417970747226,0.011251516910955542,5.086573538422722,0.5007814732993427,5.1885085337865835,7.159706718167899,2.2973142970935685,0.03086703431372549,0.0318603515625,0.05712890625,0.0735015869140625,0.159576416015625,0.2075347900390625,0.16632080078125,0.0975799560546875,0.06134033203125,0.058349609375,0.0868072509765625,orange_peel
2.2114471897827768,0.9605769415609404,0.6207092168322466,0.1715518440862053,0.9162723887697682,0.029522377922569756,2.211447189782776,0.6207092168322466,4.532226139735027,5.93572686850644,1.8324267686844924,0.08207720588235294,0.0315704345703125,0.0626220703125,0.0665283203125,0.1467132568359375,0.1773681640625,0.1591033935546875,0.102447509765625,0.0718841552734375,0.073638916015625,0.108123779296875,orange_peel
2.3420914882497144,0.9935364553296832,0.6108928525433788,0.14750312480812472,0.9040060953749318,0.02186434653532941,2.3420914882497117,0.6108928525433786,4.790828337146344,6.256173256276458,1.8570436315737804,0.06279105392156863,0.0299530029296875,0.05950927734375,0.0648040771484375,0.150054931640625,0.1939544677734375,0.166839599609375,0.0998077392578125,0.07012939453125,0.066650390625,0.098297119140625,orange_peel
3.3164347396434093,1.222379568555364,0.5484470458798618,0.12153541015757709,0.9000045456629233,0.014831651444448755,3.316434739643406,0.5484470458798618,4.982715281651331,6.705092782696092,2.056855281900084,0.0367953431372549,0.0322418212890625,0.059844970703125,0.07159423828125,0.152557373046875,0.20013427734375,0.1657257080078125,0.100921630859375,0.06512451171875,0.0590057373046875,0.0928497314453125,orange_peel
2.8026449562668194,1.1077539287773934,0.5842872004105644,0.1416086343150615,0.8863372144319153,0.02014177113255781,2.8026449562668203,0.584287200410565,4.777061846156557,6.361982923226497,1.9867844004022723,0.056862745098039215,0.0348052978515625,0.0609893798828125,0.0713958740234375,0.1478424072265625,0.18597412109375,0.1460113525390625,0.0966949462890625,0.0745086669921875,0.07537841796875,0.1063995361328125,orange_peel
5.2193887417099205,1.613404114403116,0.47270231442637906,0.1137643451547852,0.822961308465259,0.013028313118263931,5.21938874170992,0.4727023144263791,4.877757955557724,6.937479712109103,2.38366046685192,0.03673406862745098,0.0378570556640625,0.06585693359375,0.075714111328125,0.156280517578125,0.1899871826171875,0.13934326171875,0.0944061279296875,0.07366943359375,0.0671539306640625,0.0997314453125,orange_peel
4.2596579891147694,1.4007536314158031,0.5124247200730918,0.1055520888253638,0.903993719639193,0.011194578680309424,4.259657989114764,0.5124247200730918,5.219083025701595,7.114159894990843,2.2114487935768015,0.02662377450980392,0.0323028564453125,0.05853271484375,0.0738372802734375,0.153167724609375,0.21038818359375,0.163818359375,0.0978851318359375,0.0631256103515625,0.057769775390625,0.08917236328125,orange_peel
3.837034493944636,1.3509770280661284,0.5241649302487896,0.12671056174184497,0.9494961576418574,0.016191513254592664,3.8370344939446372,0.5241649302487895,5.094114831680864,6.906526105747018,2.180307119885825,0.061213235294117645,0.033966064453125,0.068115234375,0.0698699951171875,0.146759033203125,0.2024993896484375,0.1446685791015625,0.09027099609375,0.0765228271484375,0.067840576171875,0.0994873046875,orange_peel
3.397691002258747,1.2929842488465977,0.528682637664992,0.1333816099967438,0.9209632253028948,0.017861516239598786,3.397691002258747,0.5286826376649919,4.738739376061648,6.546272516700445,2.1294268446097746,0.04986213235294118,0.0357208251953125,0.0651092529296875,0.07025146484375,0.154815673828125,0.191650390625,0.148468017578125,0.0942840576171875,0.0729217529296875,0.0679931640625,0.098785400390625,orange_peel
5.01354357398597,1.4970532217176116,0.5003453021279398,0.10204543472076699,0.9255515605314135,0.010477240275658408,5.013543573985967,0.5003453021279402,5.369317704651227,7.334970069120733,2.2921089695612435,0.03308823529411765,0.03363037109375,0.05999755859375,0.0724334716796875,0.15631103515625,0.2064971923828125,0.1587066650390625,0.0937957763671875,0.065673828125,0.0604095458984375,0.0925445556640625,orange_peel
1.9834379805843925,0.916663362648982,0.6310905348877008,0.16588277056504203,0.9733615534067881,0.027611453085059044,1.9834379805843907,0.6310905348877008,4.844353275595936,6.202179159537752,1.7882632339349107,0.08363970588235294,0.0316619873046875,0.061279296875,0.0653076171875,0.1478271484375,0.181610107421875,0.1548919677734375,0.098480224609375,0.0756988525390625,0.0758209228515625,0.107421875,orange_peel
2.0954728800221094,0.9532585574058068,0.6189544198370662,0.14819462792442267,0.9687271638899653,0.022059510178892412,2.0954728800221067,0.6189544198370657,4.983449846028924,6.399500947130731,1.8205589012468826,0.06698835784313725,0.0292816162109375,0.0596771240234375,0.063140869140625,0.151153564453125,0.1937103271484375,0.164215087890625,0.1030426025390625,0.069854736328125,0.0660858154296875,0.0998382568359375,orange_peel
3.4407380124231084,1.265457170919841,0.5371319330494767,0.11103165384078084,0.9547520559442171,0.012384743522191712,3.440738012423106,0.5371319330494767,5.314754609766789,7.086186464647152,2.097276361369822,0.03158700980392157,0.0315399169921875,0.0588226318359375,0.0707244873046875,0.153564453125,0.20831298828125,0.165252685546875,0.097442626953125,0.06427001953125,0.05908203125,0.0909881591796875,orange_peel
2.2220058541186107,0.986686746083238,0.6102317731066026,0.14893188945647684,0.9702154892611453,0.022267648285611764,2.222005854118608,0.610231773106602,4.982744570538729,6.431676554514489,1.8570306549272177,0.07265625,0.0337677001953125,0.0618743896484375,0.0678253173828125,0.1470947265625,0.185760498046875,0.14996337890625,0.0957794189453125,0.075897216796875,0.0758209228515625,0.1062164306640625,orange_peel
4.209739943771628,1.4292785226835838,0.507446053856753,0.12206102894070459,0.9423907546621221,0.015001937588525013,4.209739943771626,0.5074460538567529,5.088683027521563,6.984881788970618,2.245394001867033,0.056908700980392156,0.03759765625,0.06744384765625,0.0710906982421875,0.1485595703125,0.1946868896484375,0.14178466796875,0.0908355712890625,0.0757598876953125,0.0697174072265625,0.1025238037109375,orange_peel
4.092852043084396,1.3754634185169174,0.5159872514056429,0.10105725451566328,0.9501550136763147,0.010262149067424193,4.092852043084391,0.5159872514056429,5.478346942923702,7.357783872029643,2.191466786557177,0.026822916666666665,0.0341644287109375,0.059356689453125,0.0711669921875,0.15240478515625,0.2083282470703125,0.1601104736328125,0.097076416015625,0.0648193359375,0.059295654296875,0.0932769775390625,orange_peel
4.685908785082656,1.332580467848905,0.548564723380407,0.10229091104706335,0.9732980829872453,0.010568470592929135,4.685908785082661,0.5485647233804071,5.721945657821753,7.5311224096025775,2.183214024389569,0.044761029411764706,0.0323333740234375,0.06787109375,0.0586090087890625,0.1351165771484375,0.2281494140625,0.1512603759765625,0.0829620361328125,0.0762939453125,0.0688629150390625,0.098541259765625,orange_peel
6.5447911410275035,1.4288876123366023,0.5461580537923888,0.11781192131302495,0.974853340484074,0.013930669915956153,6.54479114102749,0.5461580537923895,5.633929927497961,7.457893884553245,2.2439455877075263,0.04932598039215686,0.0325164794921875,0.062255859375,0.05523681640625,0.1396942138671875,0.240020751953125,0.15631103515625,0.08544921875,0.067047119140625,0.067352294921875,0.0941162109375,orange_peel
5.019556105223957,1.4008414281766635,0.5320442799656189,0.08281876992468623,0.9772785100848357,0.0069007789013539956,5.019556105223954,0.5320442799656189,6.034460851541709,7.91452429303592,2.2425772099774566,0.02346813725490196,0.034027099609375,0.0623931884765625,0.0637359619140625,0.1453094482421875,0.2173919677734375,0.15557861328125,0.09112548828125,0.0680389404296875,0.065826416015625,0.0965728759765625,orange_peel
3.391126054282003,1.0527574881055375,0.6232237768252586,0.13140684096591929,0.9878095578727945,0.017337377100108076,3.391126054282007,0.623223776825259,5.702676859861485,7.159001395162573,1.9468603392957033,0.06991421568627451,0.03070068359375,0.06317138671875,0.053741455078125,0.1319122314453125,0.2175445556640625,0.15716552734375,0.0908966064453125,0.07470703125,0.076507568359375,0.1036529541015625,orange_peel
4.221248287918103,1.1949510705017299,0.5880161566177498,0.11642916053025278,0.9866647205133827,0.013609307771418699,4.221248287918108,0.5880161566177509,5.828463678288806,7.443314210262767,2.066752348999526,0.050091911764705885,0.030181884765625,0.0599365234375,0.0544891357421875,0.13958740234375,0.23065185546875,0.166168212890625,0.0906524658203125,0.0676422119140625,0.0644378662109375,0.09625244140625,orange_peel
4.751479103589959,1.3236668438821606,0.5543659711352301,0.09103506403778573,0.9822756051412449,0.008323260281570224,4.751479103589965,0.554365971135231,5.9840001119045745,7.7785575618988725,2.185674188529679,0.02852328431372549,0.0333404541015625,0.0616607666015625,0.0599822998046875,0.1388397216796875,0.221832275390625,0.1629638671875,0.0906829833984375,0.0675811767578125,0.065948486328125,0.09716796875,orange_peel
2.875489024653973,0.9732809796712802,0.6345241369761353,0.1163688615835911,0.9886798336140149,0.013601443913253694,2.8754890246539793,0.6345241369761356,5.767660861625076,7.1687060802894464,1.8637302821081878,0.04647671568627451,0.03106689453125,0.0612335205078125,0.0552978515625,0.1338653564453125,0.2106170654296875,0.157440185546875,0.0926055908203125,0.074676513671875,0.079132080078125,0.10406494140625,orange_peel
4.269356692738363,1.330973528811033,0.5396001913381697,0.09343713075155205,0.982157767389775,0.008784484021612492,4.26935669273837,0.5396001913381704,5.9222052948139225,7.737490090134801,2.188088931195932,0.039721200980392155,0.035400390625,0.066070556640625,0.061981201171875,0.135711669921875,0.220947265625,0.1497955322265625,0.084869384765625,0.0738372802734375,0.0694732666015625,0.1019134521484375,orange_peel
4.347038924331985,1.301704467632642,0.5499964899458524,0.08366073866587942,0.9844660396354952,0.007028751166965275,4.347038924331988,0.5499964899458534,6.122070906437561,7.901682558481328,2.1645532943191683,0.021875,0.0343780517578125,0.06195068359375,0.0660247802734375,0.143157958984375,0.207916259765625,0.157989501953125,0.09393310546875,0.0687103271484375,0.067657470703125,0.0982818603515625,orange_peel
0.46287371443675507,0.41749086889657816,0.7957840216508704,0.26845112158275913,0.9364731179687579,0.07226371897799116,0.462873714436755,0.7957840216508705,3.8557420415890173,4.36812548577112,1.0793416057749332,0.1559436274509804,0.0117950439453125,0.0340423583984375,0.0272369384765625,0.131011962890625,0.2481231689453125,0.2528839111328125,0.101959228515625,0.059661865234375,0.0653228759765625,0.067962646484375,sandpaper
0.5579348237456749,0.4804603547914267,0.7674923017271355,0.2441286954549964,0.9340169781584509,0.05978899350152127,0.5579348237456748,0.7674923017271356,3.9985992620759134,4.619437277538669,1.1611334825920858,0.12867647058823528,0.01080322265625,0.031494140625,0.0261993408203125,0.1345367431640625,0.2828826904296875,0.25823974609375,0.092864990234375,0.0511474609375,0.0529327392578125,0.05889892578125,sandpaper
1.2854848495770874,0.8137398176182247,0.6390988506996504,0.1528110474855986,0.9416763251961926,0.02345095464296408,1.2854848495770859,0.6390988506996503,4.751854451163114,5.944991287296077,1.5757134072271717,0.05905330882352941,0.0139923095703125,0.029815673828125,0.0403900146484375,0.1605987548828125,0.3273773193359375,0.2176971435546875,0.0800018310546875,0.040802001953125,0.0365142822265625,0.0528106689453125,sandpaper
1.5214884900038448,0.8658497933487128,0.6283529869586216,0.1715662051529175,0.8929199681812061,0.02956850952073189,1.521488490003845,0.6283529869586215,4.407013008837652,5.686290893598153,1.667854619029101,0.07357536764705883,0.0144195556640625,0.031951904296875,0.04290771484375,0.1678924560546875,0.29986572265625,0.2200469970703125,0.0900115966796875,0.04034423828125,0.038238525390625,0.0543212890625,sandpaper
2.4446076478998497,1.1360435439494454,0.5505052699480628,0.13671904007807986,0.8814218566633594,0.018786262069853118,2.444607647899846,0.5505052699480619,4.681090883892695,6.309982885075455,1.9325150437415342,0.047074142156862744,0.0159912109375,0.0325469970703125,0.0487060546875,0.1762847900390625,0.31781005859375,0.2017822265625,0.0837249755859375,0.0388946533203125,0.034393310546875,0.04986572265625,sandpaper
5.201770517949858,1.6655349655180751,0.444451918019838,0.09969293337723327,0.8642121894305602,0.009992959025871459,5.201770517949827,0.44445191801983663,5.107092033342173,7.24261953888088,2.3729276261948997,0.026393995098039216,0.01806640625,0.0337677001953125,0.0529937744140625,0.1881256103515625,0.3189697265625,0.1934967041015625,0.0782928466796875,0.0387725830078125,0.030670166015625,0.046844482421875,sandpaper
0.500447093665898,0.44327058703383326,0.7840657900323535,0.2579522161990454,0.9332322254517605,0.06672916855560486,0.5004470936658978,0.7840657900323535,3.9050457047474745,4.464664260406134,1.1139839068750579,0.14368872549019607,0.01080322265625,0.033477783203125,0.02655029296875,0.1373748779296875,0.26055908203125,0.253387451171875,0.101776123046875,0.0555877685546875,0.058746337890625,0.061737060546875,sandpaper
0.5111960994569402,0.4443046995146104,0.7844243832444184,0.27050837819835555,0.9255502723794805,0.07336411149634427,0.5111960994569397,0.7844243832444187,3.82698903998556,4.394942989537219,1.1258000940042487,0.15571384803921567,0.0117950439453125,0.035186767578125,0.0267791748046875,0.1333465576171875,0.2579803466796875,0.250244140625,0.101165771484375,0.057098388671875,0.0618133544921875,0.0645904541015625,sandpaper
1.5789193909794328,0.9164539329825079,0.6057089760454581,0.12975071930590204,0.949868862759765,0.016911986382292347,1.5789193909794312,0.6057089760454579,5.0117366494599604,6.352140602638891,1.6861972405830452,0.04001225490196078,0.01348876953125,0.0282135009765625,0.0405426025390625,0.1688385009765625,0.3387908935546875,0.214324951171875,0.07928466796875,0.0366363525390625,0.032501220703125,0.0473785400390625,sandpaper
2.3423530913590946,1.092909427864284,0.5646694574083433,0.15526425737907457,0.8553579809179339,0.024210724141604637,2.3423530913590924,0.5646694574083433,4.468152165321162,6.035558605406065,1.9049441838248007,0.06412377450980392,0.0193023681640625,0.0395965576171875,0.0528411865234375,0.173828125,0.27423095703125,0.20758056640625,0.089141845703125,0.045166015625,0.039306640625,0.0590057373046875,sandpaper
3.733893379349292,1.4239878442185705,0.48603457653590343,0.12788032330651158,0.8236056514336545,0.016451378162067303,3.733893379349289,0.48603457653590354,4.651577200676707,6.568547100341524,2.1798790710012366,0.04552696078431372,0.021453857421875,0.0416107177734375,0.058685302734375,0.177642822265625,0.2785491943359375,0.193603515625,0.0873260498046875,0.045806884765625,0.0359954833984375,0.059326171875,sandpaper
10.700492959438746,2.4255934015763168,0.34423586698659303,0.07331206609389773,0.8365178095500314,0.005403101281114107,10.700492959438677,0.34423586698659214,5.47565376988975,8.11538159775399,2.837181358498098,0.01331188725490196,0.022064208984375,0.0352935791015625,0.060791015625,0.2008819580078125,0.2954254150390625,0.1800384521484375,0.0818939208984375,0.04217529296875,0.0320281982421875,0.049407958984375,sandpaper
7.306853058318931,1.953448718641867,0.4082944665038749,0.10844018358859753,0.7238959648099096,0.011806223517868,7.306853058318915,0.40829446650387446,4.764679840223767,7.125753622645768,2.5875224305801248,0.03118872549019608,0.0342864990234375,0.0568084716796875,0.0762939453125,0.171630859375,0.2089080810546875,0.164886474609375,0.09698486328125,0.061309814453125,0.048736572265625,0.0801544189453125,sandpaper
13.706744040753613,2.758564734717422,0.31344053271819144,0.0768794707068503,0.7051504997398719,0.005940814409585208,13.706744040753556,0.3134405327181906,5.18110532678189,8.023935758660626,3.001626182747927,0.016191789215686276,0.0353240966796875,0.05596923828125,0.078399658203125,0.1772003173828125,0.21990966796875,0.154754638671875,0.089141845703125,0.0636138916015625,0.0460357666015625,0.07965087890625,sandpaper
21.126735810745952,3.395266514081134,0.2704591914249638,0.061833798583407935,0.7156845035722939,0.0038393976214241878,21.126735810745863,0.2704591914249629,5.516942513599724,8.64144742326322,3.286042628324509,0.01012561274509804,0.036102294921875,0.052337646484375,0.0799102783203125,0.18292236328125,0.2193145751953125,0.157440185546875,0.090911865234375,0.06109619140625,0.0450897216796875,0.0748748779296875,sandpaper
2.7189417681901205,1.1631680573577488,0.5519791042380111,0.15596904060159972,0.8194781103259836,0.02442958820645187,2.718941768190119,0.551979104238011,4.38807343441739,6.0413924231117235,1.9875273861950031,0.06492034313725491,0.0231781005859375,0.0445556640625,0.057098388671875,0.1698455810546875,0.2540740966796875,0.1991119384765625,0.0931854248046875,0.0501251220703125,0.0418548583984375,0.0669708251953125,sandpaper
3.943077467200124,1.3994511576076523,0.5027153557522561,0.13913403877178698,0.8000760990019846,0.01945558598901507,3.943077467200115,0.5027153557522557,4.559448340273669,6.448926180540406,2.1955471931497472,0.05456495098039216,0.0244598388671875,0.045135498046875,0.060546875,0.1728057861328125,0.25830078125,0.1912078857421875,0.092071533203125,0.049835205078125,0.0408477783203125,0.064788818359375,sandpaper
13.315618256800324,2.7037043294646326,0.31838806708730694,0.06749172602012848,0.8116070773455799,0.00457825214274088,13.315618256800267,0.31838806708730616,5.5329505810334965,8.343365156419207,2.978486910325321,0.01170343137254902,0.0262298583984375,0.0399932861328125,0.0672454833984375,0.192352294921875,0.2752227783203125,0.1761627197265625,0.0854644775390625,0.0472412109375,0.0338287353515625,0.0562591552734375,sandpaper
7.437047469723192,1.9609359381007325,0.4086020345449195,0.11254813583726568,0.7114132641016244,0.012714681995640631,7.4370474697231845,0.4086020345449192,4.716869233211091,7.069076267487441,2.5948704077368547,0.033884803921568625,0.0379638671875,0.06048583984375,0.0760650634765625,0.1623077392578125,0.1971588134765625,0.1651458740234375,0.100311279296875,0.06298828125,0.050628662109375,0.086944580078125,sandpaper
8.800491427575952,2.1841918973471763,0.3740847872497489,0.10193427604314383,0.6724215803284952,0.010442869426839646,8.800491427575931,0.37408478724974814,4.754792908628279,7.266590044030758,2.710136620151819,0.029580269607843136,0.0397186279296875,0.064422607421875,0.078216552734375,0.156646728515625,0.201202392578125,0.156585693359375,0.0969085693359375,0.0680084228515625,0.0498809814453125,0.088409423828125,sandpaper
22.55894705461852,3.5881321336745544,0.2519256597105055,0.056549297308923746,0.7202163895298719,0.0032108145540683634,22.558947054618418,0.2519256597105048,5.596723576234383,8.814477455507653,3.3429851986574475,0.007996323529411764,0.0382537841796875,0.056610107421875,0.081787109375,0.1767425537109375,0.211029052734375,0.1558837890625,0.0937042236328125,0.0621185302734375,0.045013427734375,0.078857421875,sandpaper
7.922962577494248,2.0338040507256827,0.3965081251645899,0.11029014343731336,0.6820624074328558,0.012207955147226784,7.922962577494234,0.39650812516458933,4.684195182346213,7.090480257248618,2.6342094878888407,0.03167892156862745,0.038665771484375,0.063140869140625,0.079498291015625,0.159759521484375,0.192840576171875,0.1632080078125,0.0952301025390625,0.0647430419921875,0.0533599853515625,0.0895538330078125,sandpaper
20.08104792928212,3.371638627571133,0.2658971487427708,0.06504327521145492,0.6602485623820231,0.004253620303311578,20.081047929282004,0.2658971487427698,5.343337302781949,8.469171966566861,3.2563976788870246,0.011856617647058823,0.0399932861328125,0.0615997314453125,0.081298828125,0.172271728515625,0.203399658203125,0.1512451171875,0.088104248046875,0.069122314453125,0.047271728515625,0.085693359375,sandpaper
23.59230512302969,3.62279222534602,0.25448605193975415,0.057676031815810054,0.7090092973621978,0.003340676890657731,23.592305123029604,0.25448605193975365,5.585461334009384,8.804963427130016,3.366736579326247,0.009329044117647059,0.03692626953125,0.05340576171875,0.0793914794921875,0.183319091796875,0.21734619140625,0.1545257568359375,0.0916595458984375,0.06195068359375,0.0443878173828125,0.07708740234375,sandpaper
6.675138588523664,1.8724178200692057,0.4169921718330119,0.11421090418578145,0.7110666861692356,0.013093294886122984,6.6751385885236445,0.4169921718330112,4.651281083501704,6.9494048735103195,2.528985181842462,0.03370098039215686,0.0361480712890625,0.060211181640625,0.0773773193359375,0.1641693115234375,0.199127197265625,0.163421630859375,0.0982513427734375,0.0624237060546875,0.0513458251953125,0.0875244140625,sandpaper
6.3715634461505335,1.8011943573385247,0.4322225328143309,0.12484016314869453,0.6919470114439898,0.015648556644355077,6.37156344615052,0.4322225328143304,4.5352504871537525,6.768669433430637,2.490963617258383,0.04393382352941176,0.037017822265625,0.0612640380859375,0.0738677978515625,0.1575927734375,0.20404052734375,0.1693267822265625,0.0984649658203125,0.062713623046875,0.0509490966796875,0.0847625732421875,sandpaper
22.883261485967072,3.588689386293737,0.25466705820301344,0.05730996362886485,0.7183930701147052,0.0032983869610747956,22.883261485966933,0.2546670582030127,5.598374095017345,8.812983687169556,3.349398948190268,0.00897671568627451,0.0374603271484375,0.0532379150390625,0.080718994140625,0.1814117431640625,0.213104248046875,0.157012939453125,0.092987060546875,0.06109619140625,0.0443878173828125,0.078582763671875,sandpaper
7.242681781045762,1.9531187824394496,0.4068189087349857,0.11096233118579726,0.7090216688416338,0.012358577700811115,7.242681781045752,0.40681890873498505,4.714341990335731,7.06632064818176,2.5852205318443526,0.03287377450980392,0.0411376953125,0.0649871826171875,0.079315185546875,0.15576171875,0.18603515625,0.1578521728515625,0.0999908447265625,0.0686798095703125,0.0536346435546875,0.0926055908203125,sandpaper
10.133267418180536,2.369873441104386,0.3500008166152935,0.09690996068904062,0.6290353642637347,0.00944273791220691,10.133267418180509,0.3500008166152931,4.755863648884757,7.382700195018847,2.803452613827941,0.02693014705882353,0.043548583984375,0.0706329345703125,0.0801849365234375,0.1487274169921875,0.18756103515625,0.149993896484375,0.0943450927734375,0.071044921875,0.0544891357421875,0.0994720458984375,sandpaper
25.769490024870393,3.868543243584207,0.23481547202512604,0.05177054073367661,0.7176914938593895,0.002690314120310952,25.769490024870244,0.23481547202512584,5.687447015442618,9.015269267152204,3.4389973804412177,0.006587009803921569,0.043609619140625,0.0605316162109375,0.0841064453125,0.1691131591796875,0.1898193359375,0.1521453857421875,0.0953826904296875,0.0655670166015625,0.049591064453125,0.0901336669921875,sandpaper
6.830131319684758,1.8998445309496363,0.4120707686018575,0.11867468338892506,0.6610077097475058,0.014132201182934203,6.830131319684737,0.4120707686018572,4.538931152746336,6.856272539979856,2.5457931883209626,0.037270220588235294,0.04180908203125,0.0657196044921875,0.0806121826171875,0.15533447265625,0.1802215576171875,0.1576385498046875,0.099639892578125,0.068206787109375,0.055877685546875,0.094940185546875,sandpaper
16.926767619425284,3.1058326725297967,0.2828692183057301,0.07302302715138276,0.6225176889097659,0.005362539780337499,16.92676761942522,0.28286921830572986,5.128858671202693,8.139118965257058,3.1432813791721648,0.014537377450980393,0.044464111328125,0.06732177734375,0.082977294921875,0.157379150390625,0.190887451171875,0.1479339599609375,0.0914459228515625,0.0723114013671875,0.0521240234375,0.0931549072265625,sandpaper
25.519839845251916,3.8378401336024632,0.23735010434902137,0.05324850384344386,0.7062347823131363,0.002846054227133501,25.519839845251823,0.23735010434902087,5.649331601944084,8.966015362213826,3.4316322640690697,0.006939338235294117,0.042999267578125,0.061859130859375,0.083770751953125,0.1691131591796875,0.19305419921875,0.1517333984375,0.09454345703125,0.0658416748046875,0.0489959716796875,0.0880889892578125,sandpaper
6.236292126225496,1.8102272713619771,0.4258695471925164,0.1170477733411901,0.6998860065905566,0.013750196953161065,6.23629212622549,0.425869547192516,4.589516773556476,6.846475795042539,2.4885108018602744,0.03460477941176471,0.0409088134765625,0.0655517578125,0.0800018310546875,0.15301513671875,0.18267822265625,0.158477783203125,0.099334716796875,0.0673828125,0.0563507080078125,0.0962982177734375,sandpaper
7.532553269776058,1.9888801933150733,0.4039178636282243,0.11927266062895918,0.6337023634729508,0.014283654372147708,7.532553269776048,0.40391786362822407,4.531097051599522,6.903811821797587,2.609911069874622,0.04116115196078431,0.0405426025390625,0.06378173828125,0.0799102783203125,0.15594482421875,0.1868438720703125,0.16217041015625,0.098724365234375,0.0671234130859375,0.05401611328125,0.0909423828125,sandpaper
21.551865027874005,3.510984807525955,0.2554038944589041,0.058196167835180834,0.7121412454672673,0.003400025096844281,21.551865027873895,0.2554038944589036,5.540209521093594,8.729183673194324,3.312364975037706,0.008379289215686274,0.0413665771484375,0.0585479736328125,0.08251953125,0.1716461181640625,0.2006683349609375,0.1540985107421875,0.09417724609375,0.064453125,0.047821044921875,0.0847015380859375,sandpaper
6.9352843707949035,1.9143827644415645,0.4115653751773951,0.11851134298572615,0.6663639122793527,0.01409308917673104,6.935284370794887,0.41156537517739467,4.56537030532741,6.887463938952099,2.559396968931042,0.0367953431372549,0.04473876953125,0.069976806640625,0.079864501953125,0.1488494873046875,0.1717376708984375,0.15283203125,0.10150146484375,0.069793701171875,0.0594482421875,0.10125732421875,sandpaper
7.698152047890253,2.056198622524992,0.387324292029118,0.11158146404692584,0.6227124146379357,0.012510526720145515,7.698152047890234,0.3873242920291177,4.546845853774233,6.975732805520252,2.629805468094377,0.03399203431372549,0.0468597412109375,0.0733489990234375,0.079864501953125,0.14422607421875,0.1738128662109375,0.150054931640625,0.0965576171875,0.073455810546875,0.05902099609375,0.1027984619140625,sandpaper
23.405068663494895,3.706632695357557,0.24088679765929832,0.05530761911436101,0.6928747301009042,0.003069244466414543,23.405068663494806,0.2408867976592979,5.5478451565767966,8.818230237164256,3.3771011754191242,0.0073682598039215685,0.0479278564453125,0.0677947998046875,0.086639404296875,0.156005859375,0.177978515625,0.14825439453125,0.0945281982421875,0.068878173828125,0.05401611328125,0.0979766845703125,sandpaper
5.450161821775286,1.690711009587659,0.44479169893559356,0.13535446878605806,0.6406105359438788,0.018378524439877003,5.450161821775279,0.4447916989355931,4.324757543045603,6.479133281917517,2.4089437560440117,0.04734987745098039,0.0430908203125,0.0698089599609375,0.0785980224609375,0.1488037109375,0.1707916259765625,0.1555328369140625,0.101165771484375,0.072662353515625,0.058929443359375,0.100616455078125,sandpaper
15.679974063461216,2.9982951719290725,0.2904344459005011,0.07675043403164616,0.5994858286153678,0.005919948085861156,15.679974063461168,0.2904344459005006,5.0218827636256576,7.983088863372678,3.0974500513552417,0.016513480392156863,0.048675537109375,0.0725555419921875,0.083526611328125,0.1510772705078125,0.17657470703125,0.14215087890625,0.0919647216796875,0.0760498046875,0.0574188232421875,0.100006103515625,sandpaper
24.158860053825546,3.7554685397443346,0.23989042840288838,0.05456740582821479,0.6977844527633019,0.002987957046046993,24.158860053825453,0.2398904284028876,5.583636198788608,8.870055576007024,3.398582933964331,0.007337622549019608,0.0468597412109375,0.0650787353515625,0.0852203369140625,0.1604156494140625,0.1802215576171875,0.1480255126953125,0.095428466796875,0.0694580078125,0.05255126953125,0.09674072265625,sandpaper
5.566233735222033,1.715096612480778,0.43969629651168457,0.12282316008711405,0.6925206171603071,0.01513701416017392,5.56623373522203,0.4396962965116846,4.495170277276358,6.681049994084406,2.421849834145596,0.035814950980392155,0.04443359375,0.069366455078125,0.080108642578125,0.1455230712890625,0.1735992431640625,0.1573944091796875,0.099945068359375,0.07147216796875,0.0584259033203125,0.0997314453125,sandpaper
5.2577474859429145,1.6573589634996158,0.45011619241391765,0.1428973343684117,0.6098827075897221,0.020490011286431395,5.257747485942907,0.4501161924139172,4.214879669949922,6.337323535192672,2.382449717632424,0.056418504901960785,0.0424346923828125,0.068603515625,0.075958251953125,0.147979736328125,0.17791748046875,0.160552978515625,0.10223388671875,0.0679168701171875,0.05712890625,0.099273681640625,sandpaper
21.624961613321883,3.5467586385044316,0.25093782435319095,0.05836146230581182,0.6909512872068682,0.003417662898571998,21.624961613321798,0.25093782435319045,5.485727698670011,8.693675467911195,3.3213426333316605,0.007981004901960784,0.047393798828125,0.0667877197265625,0.086090087890625,0.157684326171875,0.1766204833984375,0.1497650146484375,0.095611572265625,0.069366455078125,0.054107666015625,0.0965728759765625,sandpaper
5.694975054666484,1.741579515691082,0.4359120634077129,0.1297827940264169,0.6595646050605578,0.01689847310287986,5.694975054666474,0.4359120634077125,4.412888026946291,6.608682005739663,2.443958986261119,0.04656862745098039,0.046966552734375,0.0721435546875,0.080352783203125,0.143646240234375,0.161041259765625,0.1519622802734375,0.102783203125,0.07330322265625,0.0615386962890625,0.10626220703125,sandpaper
6.546820784073441,1.8972000853037285,0.40770905612154806,0.12144508536153446,0.6079378776078382,0.014812140473907855,6.546820784073434,0.40770905612154795,4.399434578065423,6.719461988619178,2.5298895417073655,0.038817401960784315,0.0479736328125,0.0757598876953125,0.07977294921875,0.141082763671875,0.1654510498046875,0.1466522216796875,0.099609375,0.0762939453125,0.0610809326171875,0.1063232421875,sandpaper
19.720176104142674,3.417308937668204,0.255872232833259,0.06096873352987112,0.6869947878945044,0.0037290173543182677,19.720176104142638,0.2558722328332585,5.403978084159507,8.557410769035084,3.26416904109098,0.009344362745098039,0.0519256591796875,0.0718841552734375,0.0859832763671875,0.145843505859375,0.167388916015625,0.1457672119140625,0.095001220703125,0.070068359375,0.05950927734375,0.10662841796875,sandpaper
4.542227899125344,1.5441403546712815,0.46887795679553645,0.14458384070516753,0.6486601115514884,0.02097087330947372,4.542227899125336,0.46887795679553623,4.226194449307194,6.262139796880454,2.2992001875601282,0.055407475490196076,0.043701171875,0.071533203125,0.0777740478515625,0.14447021484375,0.1658935546875,0.1549224853515625,0.1058349609375,0.0709686279296875,0.0604248046875,0.1044769287109375,sandpaper
12.955900495001952,2.7243128544309885,0.312282824508166,0.08343433549736712,0.6089313486386734,0.006999999326720619,12.955900495001922,0.3122828245081659,4.906448450813865,7.731478610034934,2.970752868982254,0.018918504901960783,0.0495758056640625,0.074493408203125,0.08306884765625,0.145233154296875,0.170257568359375,0.139984130859375,0.095855712890625,0.07666015625,0.059356689453125,0.1055145263671875,sandpaper
19.471026963788045,3.3753956561178438,0.26108022612748527,0.06223088681000402,0.6820637116994228,0.003885316139943222,19.471026963787967,0.26108022612748516,5.381124915204924,8.519892942737295,3.2553796842462663,0.009589460784313726,0.05126953125,0.071075439453125,0.08660888671875,0.1478118896484375,0.167266845703125,0.14459228515625,0.0965576171875,0.07257080078125,0.0576171875,0.1046295166015625,sandpaper
4.3572248353998475,1.5171244232987324,0.47234702475894624,0.13397349335566155,0.7125754237956367,0.018011558491240368,4.357224835399847,0.47234702475894597,4.383689715960375,6.401817503411127,2.2746026057746054,0.04462316176470588,0.044677734375,0.071502685546875,0.0749969482421875,0.143798828125,0.16766357421875,0.158477783203125,0.1041412353515625,0.0703887939453125,0.0601654052734375,0.10418701171875,sandpaper
6.333519289455998,1.8470326617166504,0.41817250679267604,0.13195956272852408,0.5679249859788339,0.017466675786965268,6.333519289455979,0.4181725067926751,4.272078424537609,6.550543135395517,2.5103571471799264,0.04607843137254902,0.04632568359375,0.0718231201171875,0.0794830322265625,0.1446380615234375,0.1688995361328125,0.1515045166015625,0.099395751953125,0.0740814208984375,0.0604095458984375,0.1034393310546875,sandpaper
18.525528808030597,3.306541519487703,0.2624695275186526,0.0629452662129896,0.6892173952689213,0.003974680996171689,18.525528808030565,0.2624695275186524,5.365026979387091,8.471132142483695,3.220011236300055,0.00978860294117647,0.0506591796875,0.07037353515625,0.08782958984375,0.148468017578125,0.1675262451171875,0.14617919921875,0.0968780517578125,0.070709228515625,0.0571746826171875,0.1042022705078125,sandpaper
6.539923992574987,1.8785836427095366,0.41423218965773556,0.12584656214642903,0.596322268484176,0.015893314882481573,6.5399239925749715,0.4142321896577349,4.360166914757141,6.6593961463550935,2.5309290271701195,0.0431219362745098,0.049835205078125,0.0731201171875,0.0823822021484375,0.143157958984375,0.156097412109375,0.140716552734375,0.0998992919921875,0.0796051025390625,0.0653076171875,0.1098785400390625,sandpaper
5.7576833429450325,1.793144703960017,0.42022437934582746,0.12180835821874007,0.6421975164627993,0.01491302128236824,5.757683342945022,0.42022437934582707,4.400286594550891,6.641566718704358,2.4499611258175937,0.03855698529411765,0.048248291015625,0.0796051025390625,0.077545166015625,0.134490966796875,0.166412353515625,0.1432342529296875,0.0998077392578125,0.076934814453125,0.0633087158203125,0.11041259765625,sandpaper
13.9839784277682,2.8689368572183795,0.29454618400700416,0.06945353065835276,0.7385816786047796,0.004839314241368846,13.983978427768168,0.29454618400700394,5.296499263245726,8.202890920558977,3.0347182395837917,0.012561274509803922,0.0475921630859375,0.0701751708984375,0.0857086181640625,0.1508636474609375,0.1737060546875,0.1462249755859375,0.098419189453125,0.0707550048828125,0.055938720703125,0.100616455078125,sandpaper
3.0486079722943122,1.2589999189013856,0.5256337418915825,0.17234507192073276,0.652964786953786,0.029806276931495294,3.0486079722943105,0.5256337418915824,3.9568689193754913,5.718180718087209,2.0640880472771275,0.07383578431372549,0.0414581298828125,0.0710601806640625,0.0731201171875,0.1421356201171875,0.1682586669921875,0.1608123779296875,0.1047515869140625,0.06927490234375,0.0631866455078125,0.1059417724609375,sandpaper
11.24215381403788,2.541530946631106,0.3281721155693965,0.08504716726755188,0.6497078064006945,0.007283377441553727,11.24215381403787,0.3281721155693961,4.907246320361061,7.634941437945024,2.8745638918687937,0.020067401960784315,0.0501251220703125,0.080596923828125,0.08013916015625,0.1382904052734375,0.17095947265625,0.1389617919921875,0.0930023193359375,0.0806732177734375,0.0604705810546875,0.106781005859375,sandpaper
13.82791348279512,2.8429824166186166,0.2981070985573409,0.07830819516564339,0.6286513302204012,0.006150463177108857,13.82791348279508,0.2981070985573401,5.003327110080627,7.896238003721514,3.026582652460538,0.015900735294117646,0.04986572265625,0.06988525390625,0.0852203369140625,0.1503448486328125,0.169464111328125,0.1461181640625,0.095794677734375,0.0713958740234375,0.0589447021484375,0.10296630859375,sandpaper
3.0954803741349477,1.268994827710496,0.5231318014492595,0.14931347037327636,0.7518177620649746,0.0223745478250002,3.095480374134948,0.5231318014492599,4.262017016520309,6.042840758385668,2.073982801672703,0.053967524509803924,0.04266357421875,0.0719451904296875,0.0742950439453125,0.1385650634765625,0.1663665771484375,0.1601104736328125,0.104156494140625,0.072113037109375,0.06341552734375,0.1063690185546875,sandpaper
4.4786896416042,1.5481776690455606,0.4663365938684723,0.15588650194060674,0.5689408815117093,0.02437346490199293,4.478689641604191,0.4663365938684719,4.02815522229762,6.0668400102860085,2.298164913674545,0.06387867647058823,0.0464019775390625,0.0728759765625,0.076904296875,0.142547607421875,0.1624603271484375,0.152923583984375,0.1014556884765625,0.074981689453125,0.062347412109375,0.1071014404296875,sandpaper
12.104736114114788,2.6596809970924635,0.31316576620168785,0.07683242693407566,0.706816404766578,0.005922170923230257,12.104736114114765,0.3131657662016873,5.104740478477813,7.905924622412473,2.9398305995051732,0.01401654411764706,0.05224609375,0.0726165771484375,0.0850372314453125,0.1422882080078125,0.16400146484375,0.145050048828125,0.0967559814453125,0.072174072265625,0.06097412109375,0.108856201171875,sandpaper
5.538025143574593,1.7126165867695136,0.4409535732716637,0.12805028483526623,0.6616661272981416,0.016453469256340503,5.538025143574588,0.4409535732716632,4.40675465830243,6.5790899015028375,2.4246524395622293,0.04015012254901961,0.051025390625,0.0784912109375,0.08282470703125,0.134033203125,0.146453857421875,0.13739013671875,0.101531982421875,0.0797271728515625,0.071075439453125,0.1174468994140625,sandpaper
4.020267640450791,1.485329996275472,0.47367818550450014,0.1442629713569829,0.6488030192158515,0.02089401273598966,4.020267640450788,0.4736781855044998,4.1602216176222075,6.1486435220593485,2.2351770729145093,0.05280330882352941,0.050262451171875,0.0821685791015625,0.0758819580078125,0.1306304931640625,0.15277099609375,0.1429901123046875,0.101531982421875,0.0789337158203125,0.068328857421875,0.1165008544921875,sandpaper
14.24289594146483,2.900697267877741,0.2915964435158153,0.07249569085986482,0.6796572782201449,0.005271829153883858,14.242895941464823,0.29159644351581493,5.145362547742338,8.069039375298383,3.049089797345122,0.012944240196078432,0.0575408935546875,0.0803680419921875,0.0869293212890625,0.1325531005859375,0.1479034423828125,0.1338958740234375,0.0960235595703125,0.07720947265625,0.0675048828125,0.1200714111328125,sandpaper
2.9020752234717437,1.2349409181564797,0.5294971719597217,0.17318459430990477,0.6533564395917938,0.030085491338664706,2.9020752234717415,0.5294971719597215,3.9318826674264042,5.673436228927539,2.040776902229396,0.07539828431372549,0.0456695556640625,0.0758514404296875,0.07464599609375,0.1342010498046875,0.1529083251953125,0.148651123046875,0.105224609375,0.076507568359375,0.0693817138671875,0.1169586181640625,sandpaper
7.498901939758754,2.0673412419502113,0.38009638262816137,0.0984903683629463,0.6972148586927382,0.009760349267959809,7.498901939758747,0.38009638262816114,4.739156649855356,7.181611338379319,2.6170991609376415,0.025183823529411765,0.0536041259765625,0.0832366943359375,0.0811309814453125,0.1298370361328125,0.1570892333984375,0.1319732666015625,0.09320068359375,0.085784912109375,0.067535400390625,0.116607666015625,sandpaper
14.089996305507535,2.872007881584009,0.29562441137709194,0.07489775215172814,0.6595048364113256,0.0056257414136210646,14.089996305507498,0.29562441137709117,5.092005885402168,8.003677150378834,3.0415040549158796,0.013878676470588235,0.056060791015625,0.0783538818359375,0.08673095703125,0.1378631591796875,0.1503753662109375,0.13360595703125,0.097015380859375,0.077728271484375,0.065704345703125,0.1165618896484375,sandpaper
2.9248557796280297,1.2411971507352946,0.5278553648724249,0.14320810938763132,0.7888954676512496,0.020581717712371102,2.9248557796280275,0.527855364872425,4.346989528112921,6.106073754849466,2.045630179996653,0.04586397058823529,0.047637939453125,0.0770416259765625,0.072998046875,0.1336517333984375,0.1491241455078125,0.1520538330078125,0.1071624755859375,0.0758514404296875,0.0687255859375,0.115753173828125,sandpaper
4.601582564398321,1.5650245098039244,0.4638670724137776,0.15527312830940185,0.5447680527023931,0.024176165779043454,4.601582564398308,0.4638670724137771,3.9987379929280724,6.0567596106133665,2.3131690851206494,0.06151960784313725,0.050537109375,0.0797882080078125,0.0760650634765625,0.135009765625,0.1479034423828125,0.1445770263671875,0.1023101806640625,0.077423095703125,0.0696868896484375,0.11669921875,sandpaper
12.926670466287028,2.7519327752547103,0.30488139171109796,0.07522483336966651,0.6910690500716765,0.005676302584101334,12.926670466287003,0.30488139171109735,5.105164181585677,7.955991262545945,2.98412039933545,0.013556985294117647,0.0571746826171875,0.079071044921875,0.08526611328125,0.1345062255859375,0.14959716796875,0.1321258544921875,0.0977630615234375,0.0793304443359375,0.0662994384765625,0.118865966796875,sandpaper
4.131267195910235,1.4761014844050395,0.4813475775223557,0.1451247997848155,0.6704182586739327,0.021128037678026613,4.131267195910227,0.48134757752235513,4.222933924085632,6.195755991085462,2.24878876900881,0.052098651960784316,0.052703857421875,0.0796966552734375,0.0784454345703125,0.1336517333984375,0.1403656005859375,0.134918212890625,0.1043548583984375,0.0821533203125,0.0735931396484375,0.1201171875,sandpaper
2.969108395809307,1.2671897827758563,0.5188080373904621,0.1485530828717297,0.7461376994760185,0.02215996682379469,2.969108395809304,0.5188080373904616,4.216042242074739,5.995962156669021,2.0551640867807084,0.05029105392156863,0.05010986328125,0.081390380859375,0.074310302734375,0.1280670166015625,0.146453857421875,0.14129638671875,0.10455322265625,0.0806732177734375,0.0724639892578125,0.1206817626953125,sandpaper
9.764444714773177,2.3890032679738575,0.33897385355739795,0.07913725383348941,0.7634019516521743,0.006283401791791949,9.764444714773164,0.33897385355739756,5.11511134226184,7.769029015697692,2.80211694343151,0.01639093137254902,0.0587615966796875,0.0827789306640625,0.084625244140625,0.1292877197265625,0.1396026611328125,0.1328887939453125,0.0957489013671875,0.080902099609375,0.071136474609375,0.124267578125,sandpaper
2.227145959486737,1.0796971717608619,0.5657041530601776,0.18307782531119973,0.7055374779716599,0.033626019797939985,2.227145959486736,0.5657041530601776,3.8890239026255564,5.456501695793863,1.889076489139251,0.08020833333333334,0.045318603515625,0.0769195556640625,0.0704345703125,0.132537841796875,0.1501312255859375,0.151092529296875,0.106689453125,0.07647705078125,0.0718536376953125,0.1185455322265625,sandpaper
6.705247215614193,1.951259957107842,0.39590657736467927,0.09542441890867806,0.7667221573571639,0.009172146637597123,6.705247215614187,0.39590657736467905,4.8592482358363345,7.221530113609869,2.5446935127025037,0.023207720588235295,0.0535888671875,0.0870819091796875,0.0781402587890625,0.1274261474609375,0.15447998046875,0.129180908203125,0.094940185546875,0.086090087890625,0.07012939453125,0.1189422607421875,sandpaper
10.224549001585952,2.4427456987697043,0.3338125572536275,0.0797524755346468,0.7533851471280066,0.006380904806054721,10.224549001585927,0.33381255725362685,5.1141578687016835,7.798584699576937,2.8314527394288236,0.016467524509803922,0.0581817626953125,0.08282470703125,0.0849609375,0.1302490234375,0.140533447265625,0.12957763671875,0.0983428955078125,0.0804443359375,0.070343017578125,0.124542236328125,sandpaper
2.131242325668013,1.0498551788975397,0.5743661458070876,0.15959470928878355,0.816773549427113,0.025556873243314786,2.131242325668012,0.5743661458070877,4.230680292321986,5.769738785138518,1.8643777988675816,0.05621936274509804,0.0445098876953125,0.079559326171875,0.0692291259765625,0.1278228759765625,0.149993896484375,0.152435302734375,0.1104736328125,0.0767822265625,0.0703277587890625,0.118865966796875,sandpaper
2.622700328599578,1.17104345383987,0.544784985124781,0.18916201511328098,0.6175776251928584,0.035879650701638025,2.622700328599577,0.5447849851247812,3.7710359470241444,5.444581292048422,1.9865319442282263,0.09368872549019608,0.0474853515625,0.0789031982421875,0.074127197265625,0.1311187744140625,0.1443939208984375,0.14520263671875,0.107086181640625,0.0803070068359375,0.070953369140625,0.12042236328125,sandpaper
10.641929291017892,2.494788047265473,0.32857466711537864,0.07615800236413932,0.755826719245295,0.005819937420799167,10.641929291017878,0.3285746671153781,5.155599345297325,7.8693146392646725,2.8572334805403115,0.013832720588235294,0.0574951171875,0.0798797607421875,0.085784912109375,0.1320648193359375,0.1461334228515625,0.132904052734375,0.0972900390625,0.0802001953125,0.0680999755859375,0.120147705078125,sandpaper
0.7748562602124192,0.5741722384419464,0.7324941634011952,0.21439912911645564,0.9568008653594983,0.04610778585397027,0.7748562602124182,0.7324941634011949,4.416997504863816,5.228722454007196,1.330215053038855,0.12107843137254902,0.0123443603515625,0.0331573486328125,0.032379150390625,0.1449127197265625,0.27728271484375,0.2415618896484375,0.093994140625,0.0501556396484375,0.052459716796875,0.0617523193359375,sponge
0.9141607945261443,0.6404471987937344,0.7062746836738413,0.18482184272483754,0.9629991263010256,0.03428419596354126,0.9141607945261436,0.7062746836738412,4.664691402893611,5.58851494446929,1.4085279033978084,0.0943780637254902,0.0120697021484375,0.032135009765625,0.0323486328125,0.146148681640625,0.2999267578125,0.2436676025390625,0.08929443359375,0.04278564453125,0.0452880859375,0.05633544921875,sponge
1.950918126441755,0.9949010296520587,0.5902875273515387,0.12358031319829749,0.965936951947906,0.015344633959196385,1.9509181264417532,0.5902875273515383,5.284308209409682,6.732747263716229,1.8067322276504962,0.04698223039215686,0.0168304443359375,0.03314208984375,0.04498291015625,0.1628265380859375,0.3177032470703125,0.21173095703125,0.081695556640625,0.0397491455078125,0.036834716796875,0.05450439453125,sponge
3.702888207059792,1.30681665405133,0.5317646509758399,0.14456769139326475,0.8335288815836936,0.020979313006150017,3.702888207059785,0.5317646509758391,4.622838666177865,6.435660400337391,2.14661564930699,0.062208946078431374,0.0297698974609375,0.0513458251953125,0.0679473876953125,0.162139892578125,0.21685791015625,0.1828460693359375,0.0967864990234375,0.0572052001953125,0.05352783203125,0.081573486328125,sponge
6.701981058967734,1.835497164552103,0.42947155394170483,0.0932692646364634,0.8599009527069926,0.008739635100561673,6.7019810589677045,0.42947155394170355,5.235954463411372,7.525860795657728,2.51909593543591,0.024080882352941178,0.030517578125,0.05224609375,0.0709075927734375,0.1648406982421875,0.230926513671875,0.1855316162109375,0.0906524658203125,0.0526885986328125,0.0458984375,0.0757904052734375,sponge
10.034002291786878,2.2634942540128895,0.374219302290293,0.07762737008274966,0.8456945901132911,0.006053507885826498,10.034002291786814,0.3742193022902918,5.443446207832908,8.013224889176636,2.777753413912671,0.017264093137254903,0.03460693359375,0.0565948486328125,0.0739288330078125,0.1623077392578125,0.2195892333984375,0.1778106689453125,0.093536376953125,0.055694580078125,0.04583740234375,0.0800933837890625,sponge
0.9635775002402932,0.6457814602556722,0.707140896104058,0.19866641706864008,0.9522676625000065,0.03959763969438598,0.9635775002402922,0.7071408961040573,4.512993862722952,5.456456342809804,1.4335627320348314,0.10421262254901961,0.013671875,0.0328216552734375,0.0355377197265625,0.1515960693359375,0.2826385498046875,0.233428955078125,0.092498779296875,0.0493316650390625,0.0489044189453125,0.0595703125,sponge
0.6229156003700502,0.49002410431084276,0.7679175703906778,0.24506125866594675,0.9414182296026385,0.06022813653672729,0.62291560037005,0.7679175703906775,4.108683353214502,4.780408012957531,1.2236797586641703,0.14036458333333332,0.0157470703125,0.040008544921875,0.03472900390625,0.14208984375,0.227783203125,0.2211456298828125,0.104278564453125,0.064910888671875,0.0711212158203125,0.07818603515625,sponge
2.9895547685986217,1.2341396337946968,0.5318025865311926,0.1034710419045374,0.9537928122095691,0.010760114157596803,2.9895547685986155,0.531802586531193,5.445237403578168,7.180108970879554,2.039478820203354,0.030667892156862744,0.01617431640625,0.0315704345703125,0.047149658203125,0.1733551025390625,0.3248443603515625,0.2067718505859375,0.0791168212890625,0.037384033203125,0.03240966796875,0.0512237548828125,sponge
5.422558526167837,1.6267403312427948,0.4674599351620117,0.11809502068335334,0.8369503996864828,0.014001188499713458,5.422558526167821,0.4674599351620114,4.887715721437836,6.999803472971714,2.388611055766363,0.04200367647058824,0.037689208984375,0.06268310546875,0.0717315673828125,0.150482177734375,0.19671630859375,0.1732177734375,0.097503662109375,0.0627593994140625,0.054962158203125,0.092254638671875,sponge
6.44941858299695,1.7631916510476788,0.4484127752743492,0.11248415055053618,0.8123863583718908,0.01270743719850517,6.449418582996924,0.4484127752743482,4.919193380779378,7.139751362183809,2.486686740762888,0.03985906862745098,0.0400543212890625,0.0656890869140625,0.0753021240234375,0.1455841064453125,0.1886749267578125,0.1680755615234375,0.1003570556640625,0.0649261474609375,0.0561370849609375,0.0951995849609375,sponge
23.365134833958216,3.468346399221454,0.28385766679591573,0.05286059795993946,0.8055530304402446,0.002806050185967548,23.365134833958095,0.2838576667959156,5.897211654897562,9.051175564924447,3.3449967858295757,0.007674632352941176,0.0432891845703125,0.0642547607421875,0.0839385986328125,0.152374267578125,0.18817138671875,0.163177490234375,0.0951690673828125,0.06378173828125,0.052978515625,0.092864990234375,sponge
8.458325088307424,2.0571770923442982,0.40413544487801606,0.09344298345881426,0.812215209783667,0.008765450833801786,8.458325088307383,0.4041354448780149,5.143809348921733,7.595346385628062,2.6710802039407557,0.02541360294117647,0.0418701171875,0.06658935546875,0.077239990234375,0.145477294921875,0.18804931640625,0.1672210693359375,0.0975799560546875,0.0643157958984375,0.055389404296875,0.0962677001953125,sponge
12.834310346381272,2.554483747236646,0.349023724226267,0.07351044659039298,0.8024976839344834,0.005430338808874584,12.8343103463812,0.3490237242262656,5.440142695108951,8.191483047387504,2.9381263017621806,0.016268382352941178,0.04193115234375,0.068206787109375,0.0791473388671875,0.142608642578125,0.1935272216796875,0.167724609375,0.0936431884765625,0.0638427734375,0.053466796875,0.0959014892578125,sponge
23.341550980992984,3.486108813316994,0.2811821124797765,0.052650750674366434,0.7992140313815851,0.002783841552363957,23.34155098099289,0.28118211247977637,5.879575848632275,9.047615893976115,3.3500424134205176,0.007398897058823529,0.0432281494140625,0.0655059814453125,0.0818634033203125,0.1535797119140625,0.188690185546875,0.163909912109375,0.0927581787109375,0.0647430419921875,0.0527191162109375,0.0930023193359375,sponge
5.538689671640733,1.6196452836649398,0.47296524964622993,0.12787524502602787,0.7835459855441618,0.016410712017795218,5.538689671640715,0.47296524964623005,4.707846037403827,6.804002639248685,2.390903453405932,0.0491421568627451,0.039642333984375,0.0652618408203125,0.07550048828125,0.15093994140625,0.181427001953125,0.158782958984375,0.1008758544921875,0.069549560546875,0.060577392578125,0.097442626953125,sponge
4.094805528522693,1.3239697922673992,0.5379831742354049,0.16479354449313094,0.7593575274643579,0.0272562035235935,4.094805528522684,0.5379831742354042,4.37040200506803,6.155442594779586,2.172925699374501,0.07867647058823529,0.03887939453125,0.0624542236328125,0.0731964111328125,0.1514434814453125,0.1738128662109375,0.1530303955078125,0.104522705078125,0.0725250244140625,0.068145751953125,0.10198974609375,sponge
23.164897395232668,3.4498545631487874,0.28207291582666427,0.055840962480855905,0.7757882509867664,0.0031315221569724,23.1648973952326,0.28207291582666416,5.788727685278992,8.930309560312145,3.332831061408384,0.008777573529411765,0.044097900390625,0.0635223388671875,0.0839996337890625,0.156036376953125,0.1873626708984375,0.1595916748046875,0.093475341796875,0.066009521484375,0.053314208984375,0.09259033203125,sponge
4.364902306204355,1.4454388486399494,0.5010106283075361,0.13831526629081567,0.8252801734267461,0.01920178003361062,4.364902306204344,0.5010106283075356,4.659744152995515,6.603516085139791,2.254476105546524,0.05972732843137255,0.0362396240234375,0.060699462890625,0.0721282958984375,0.15032958984375,0.1993865966796875,0.17108154296875,0.09893798828125,0.0625,0.056884765625,0.0918121337890625,sponge
4.601836793540958,1.4920171628700527,0.49095574919756346,0.13070494137889302,0.8205298731802514,0.017164619692473616,4.601836793540946,0.49095574919756263,4.710472385012975,6.700268914423046,2.2848590106497806,0.05333946078431372,0.0360260009765625,0.060333251953125,0.0717010498046875,0.149139404296875,0.2020721435546875,0.1753692626953125,0.0988311767578125,0.0626220703125,0.0545654296875,0.0893402099609375,sponge
16.777323235053828,2.972785046616688,0.3085438597822458,0.061035607821915264,0.819428034299167,0.003740463834835225,16.777323235053828,0.3085438597822455,5.699128441424865,8.648940496787155,3.1294523026673495,0.010646446078431373,0.0423126220703125,0.0628509521484375,0.0782623291015625,0.155792236328125,0.19622802734375,0.1681976318359375,0.0953369140625,0.0618438720703125,0.0506134033203125,0.08856201171875,sponge
6.133214193459265,1.722903015066324,0.45372102787627716,0.11984831350112482,0.7856337553347331,0.014414815433320738,6.133214193459246,0.45372102787627605,4.777044000145099,6.9659614629474085,2.4591137170483504,0.042264093137254904,0.040740966796875,0.064239501953125,0.075408935546875,0.1519317626953125,0.1831512451171875,0.16473388671875,0.0991668701171875,0.066864013671875,0.0572052001953125,0.0965576171875,sponge
9.754647491349528,2.2290654135428754,0.38006502712687934,0.08931748302406452,0.7882922902545526,0.008015189853061627,9.754647491349482,0.3800650271268776,5.154521686805618,7.709791900562511,2.7622801210623007,0.024724264705882352,0.0433502197265625,0.0669097900390625,0.078277587890625,0.144622802734375,0.1901702880859375,0.164276123046875,0.0936279296875,0.0655059814453125,0.05584716796875,0.097412109375,sponge
16.527646518166158,2.973405631247599,0.3049901609082055,0.06286108381844976,0.7988828307175087,0.003966945294528488,16.527646518166087,0.304990160908205,5.609640391010501,8.570599100251886,3.124025962311067,0.01053921568627451,0.0438232421875,0.0640411376953125,0.08099365234375,0.1523895263671875,0.1926422119140625,0.1637725830078125,0.0935211181640625,0.0613861083984375,0.0536651611328125,0.0937652587890625,sponge
4.1813010921280345,1.3893941633025788,0.516003231737735,0.1526552398408207,0.7810042397426091,0.023381487340108666,4.181301092128027,0.516003231737734,4.4699452104835435,6.346831077834004,2.2164376452748034,0.06810661764705882,0.0367279052734375,0.0627288818359375,0.0728607177734375,0.1566162109375,0.185821533203125,0.1603851318359375,0.1020050048828125,0.0677032470703125,0.061187744140625,0.093963623046875,sponge
3.253113916522504,1.1685248161764739,0.5711604805815019,0.184012588362561,0.7571418799993008,0.03398473368802598,3.2531139165224916,0.5711604805815016,4.2002073788189085,5.816132959661971,2.0388328757731413,0.0993719362745098,0.0364837646484375,0.059356689453125,0.070465087890625,0.154937744140625,0.178924560546875,0.1569061279296875,0.10540771484375,0.0721893310546875,0.067901611328125,0.0974273681640625,sponge
17.2611821925462,3.0228511419886583,0.3033474435257686,0.06158863904793078,0.7997063767351551,0.0038083159976418646,17.261182192546137,0.3033474435257685,5.657613759036346,8.627344968454924,3.148280206017717,0.010033700980392158,0.04241943359375,0.0607147216796875,0.0806732177734375,0.1582794189453125,0.1977386474609375,0.162139892578125,0.0949859619140625,0.062042236328125,0.0511932373046875,0.089813232421875,sponge
4.229601760741071,1.4395181991301442,0.4992027753392585,0.14220759458945198,0.8047697542988946,0.02029577162950971,4.229601760741062,0.4992027753392583,4.556268292562335,6.494393081882034,2.2450520356304127,0.057965686274509806,0.037841796875,0.06146240234375,0.0714874267578125,0.15350341796875,0.1922760009765625,0.1695404052734375,0.09893798828125,0.0654754638671875,0.056182861328125,0.093292236328125,sponge
4.4384221963908175,1.4755208483515982,0.49220489422048963,0.13417585079691693,0.8009847645085245,0.01808543457256071,4.438422196390811,0.4922048942204889,4.621054316174075,6.5984543676173475,2.2699239165143013,0.05464154411764706,0.0377197265625,0.0619964599609375,0.0704803466796875,0.1520233154296875,0.19427490234375,0.170745849609375,0.099365234375,0.066131591796875,0.055450439453125,0.0918121337890625,sponge
21.578663374663652,3.4077237420703597,0.2773196429550484,0.054038494800587394,0.8002604768715148,0.002931667149709646,21.57866337466359,0.2773196429550479,5.807571803834474,8.948630136623963,3.3063831577602616,0.007965686274509803,0.0447540283203125,0.062408447265625,0.0805511474609375,0.1519622802734375,0.19647216796875,0.1655731201171875,0.0917205810546875,0.0624542236328125,0.0509033203125,0.09320068359375,sponge
5.193507665321043,1.5960759683775492,0.47078051378312824,0.1283633349555356,0.7884118893488523,0.01653354560673089,5.193507665321031,0.47078051378312824,4.672379098777373,6.7541057103979405,2.361665941400169,0.04782475490196078,0.040771484375,0.0633087158203125,0.074066162109375,0.148345947265625,0.1882171630859375,0.1676788330078125,0.0981597900390625,0.0643768310546875,0.057952880859375,0.0971221923828125,sponge
8.281018103013302,2.0530827836649426,0.39942597129979496,0.09770916468188835,0.7821312727207586,0.009593854291080946,8.281018103013263,0.39942597129979407,5.019757338980242,7.4558819694341665,2.6549241512602837,0.02892156862745098,0.0424346923828125,0.06591796875,0.0748291015625,0.1477203369140625,0.19671630859375,0.1629486083984375,0.09515380859375,0.064117431640625,0.0549774169921875,0.095184326171875,sponge
14.342463685842016,2.7883685661764783,0.3163460069577883,0.06855785182483681,0.7899568817622239,0.004717225398016878,14.342463685841983,0.3163460069577876,5.460962597357369,8.33321536024989,3.0346073930408437,0.013403799019607842,0.044036865234375,0.066314697265625,0.08099365234375,0.145721435546875,0.1938018798828125,0.1653594970703125,0.0946197509765625,0.061981201171875,0.052581787109375,0.0945892333984375,sponge
4.373766039504048,1.426282559592466,0.5073415609942926,0.151718306185476,0.7523291792202403,0.023091873875478276,4.373766039504037,0.5073415609942924,4.411263606649328,6.32790358318277,2.2430163885928005,0.06862745098039216,0.04052734375,0.0644378662109375,0.0741729736328125,0.14971923828125,0.180755615234375,0.1582794189453125,0.1018218994140625,0.070281982421875,0.0621185302734375,0.0978851318359375,sponge
3.208548560049026,1.1839027807814335,0.5637295688959576,0.1891054574683449,0.7349079323150447,0.035871360813439085,3.20854856004902,0.5637295688959578,4.106074697810779,5.747908641366971,2.048179375825921,0.10491727941176471,0.040069580078125,0.064453125,0.0709228515625,0.1495208740234375,0.1678924560546875,0.153076171875,0.104278564453125,0.075958251953125,0.0697021484375,0.1041259765625,sponge
23.68432595035577,3.5608838848039293,0.2679744345981528,0.053965951114962524,0.7662257028656657,0.0029234982248682656,23.684325950355635,0.2679744345981523,5.767535372371476,8.966108197038158,3.3639961721961913,0.007705269607843138,0.0449676513671875,0.0667877197265625,0.081268310546875,0.15020751953125,0.1896514892578125,0.16046142578125,0.0915679931640625,0.06561279296875,0.0532073974609375,0.0962677001953125,sponge
3.7999353914359952,1.3560948613514046,0.517166968218899,0.15640593484619586,0.7859323038742514,0.024544491630677817,3.7999353914359864,0.5171669682188985,4.392614629768928,6.244563522264553,2.181835552770438,0.07103247549019608,0.0375213623046875,0.0618438720703125,0.0690765380859375,0.14849853515625,0.1939544677734375,0.173065185546875,0.1003875732421875,0.063568115234375,0.0570068359375,0.0950775146484375,sponge
4.354824136149566,1.4578628111783938,0.4951779622814024,0.140064673718738,0.786970231931404,0.01970205482374409,4.354824136149558,0.4951779622814025,4.534731352165636,6.487914029623646,2.255483360985266,0.05962009803921569,0.0390167236328125,0.0646209716796875,0.0694427490234375,0.1453857421875,0.193695068359375,0.1705780029296875,0.0982666015625,0.0667266845703125,0.056976318359375,0.0952911376953125,sponge
16.31402222102083,2.9780650771337998,0.30102421982743865,0.06322346759917608,0.8038652490852156,0.00401248065995597,16.31402222102076,0.3010242198274378,5.59769869660305,8.55889135517057,3.1184893716326187,0.011979166666666667,0.0424041748046875,0.061767578125,0.07952880859375,0.1491241455078125,0.2051849365234375,0.1736602783203125,0.0921173095703125,0.058929443359375,0.048309326171875,0.0889739990234375,sponge
4.165920484308927,1.4243724619136873,0.5023383661305899,0.1476852932627385,0.7688390534763707,0.021885527132299666,4.16592048430892,0.5023383661305894,4.43723236203576,6.35801516117636,2.2324876183223785,0.0625765931372549,0.0396728515625,0.062713623046875,0.0710906982421875,0.146942138671875,0.190643310546875,0.170989990234375,0.1005706787109375,0.0656585693359375,0.056121826171875,0.0955963134765625,sponge
7.5349525873462415,1.983133124879859,0.4043847781844696,0.09830482247893806,0.792668625188254,0.009713702487941716,7.534952587346215,0.40438477818446905,5.004155143792979,7.3928267542480715,2.603118544494429,0.02814031862745098,0.04010009765625,0.0623779296875,0.0743408203125,0.1478271484375,0.2068939208984375,0.1704559326171875,0.0957794189453125,0.0626983642578125,0.0499420166015625,0.0895843505859375,sponge
14.690308895617122,2.840797199394468,0.30955970638941555,0.06744411133419048,0.7879791848052928,0.004565560162004607,14.690308895617068,0.3095597063894149,5.471255611119616,8.367772228820511,3.05280424463168,0.012974877450980393,0.0437774658203125,0.0641632080078125,0.0781402587890625,0.1441497802734375,0.20587158203125,0.1715545654296875,0.0948638916015625,0.0580596923828125,0.0491943359375,0.0902252197265625,sponge
3.932096939878905,1.3588154195501754,0.5184419389365452,0.157014087959163,0.750217161266361,0.024732908106147304,3.932096939878893,0.5184419389365448,4.348281469604016,6.20204257614457,2.184150583432769,0.07290134803921569,0.0398406982421875,0.063079833984375,0.073974609375,0.14971923828125,0.1806640625,0.1607208251953125,0.101898193359375,0.0700531005859375,0.0619354248046875,0.098114013671875,sponge
2.861474673202621,1.1160711024605954,0.5784030067562215,0.19705622973663678,0.7302200637949036,0.038948921695052034,2.8614746732026144,0.5784030067562216,4.020583104481417,5.592617612782405,1.9834088319334946,0.11208639705882353,0.0390472412109375,0.0652923583984375,0.068603515625,0.1473236083984375,0.1687469482421875,0.1580657958984375,0.1050567626953125,0.07415771484375,0.0704193115234375,0.1032867431640625,sponge
16.993287557670172,3.0348098087274145,0.296836273377286,0.06418738112358156,0.7721910622501139,0.0041355325847920454,16.993287557670126,0.29683627337728613,5.527657055996007,8.515166958697284,3.1437285004201545,0.011902573529411764,0.045166015625,0.064117431640625,0.0800933837890625,0.1478271484375,0.19635009765625,0.1647491455078125,0.0931243896484375,0.0636749267578125,0.0513458251953125,0.0935516357421875,sponge
3.5165892325067363,1.312934478325646,0.5237795541329274,0.1586009300381774,0.7899217982480107,0.02524225887444368,3.5165892325067287,0.5237795541329267,4.364150373046622,6.170735606788426,2.1416808552623854,0.07290134803921569,0.0355072021484375,0.0601959228515625,0.06756591796875,0.14617919921875,0.2016143798828125,0.186553955078125,0.0998992919921875,0.0595550537109375,0.052947998046875,0.0899810791015625,sponge
4.114008058799511,1.444728034289698,0.4930085681027832,0.13391660416447307,0.8144860250707591,0.01801610665775333,4.1140080587995005,0.49300856810278254,4.613748149380358,6.5608430989347735,2.23556638260865,0.05572916666666667,0.0366363525390625,0.0609893798828125,0.06695556640625,0.1455230712890625,0.20770263671875,0.1818695068359375,0.099029541015625,0.0609588623046875,0.04986572265625,0.0904693603515625,sponge
19.33314557501929,3.26068432213572,0.28237316740255725,0.05742155998106832,0.7998229477011147,0.0033105102538237216,19.333145575019223,0.28237316740255675,5.715264879173789,8.803476833120344,3.23893155944341,0.00980392156862745,0.0413665771484375,0.0604400634765625,0.0768585205078125,0.152435302734375,0.211822509765625,0.1803131103515625,0.08984375,0.0563507080078125,0.0467529296875,0.0838165283203125,sponge
4.446909962514427,1.485840662245291,0.48868158237455983,0.14300162312053957,0.771452492466191,0.020519447130257558,4.446909962514418,0.48868158237455966,4.475716570323787,6.451482621970168,2.2781826283573685,0.059819240196078434,0.03814697265625,0.062469482421875,0.070709228515625,0.1470794677734375,0.1942596435546875,0.1795806884765625,0.0998992919921875,0.0629730224609375,0.0521697998046875,0.09271240234375,sponge
8.511765637014625,2.1402403522683593,0.38127878633702306,0.09181180546030335,0.7868760951396001,0.008475680448576956,8.511765637014612,0.3812787863370223,5.071774747213756,7.565228284405625,2.6921888323368903,0.026470588235294117,0.0400238037109375,0.063140869140625,0.0736846923828125,0.146881103515625,0.2120361328125,0.1750335693359375,0.0947113037109375,0.0594024658203125,0.047515869140625,0.0875701904296875,sponge
15.487719221573492,2.9306032685745933,0.3017729549653457,0.06554810545423054,0.7896805367636243,0.0043128962999325554,15.487719221573432,0.3017729549653449,5.512665803495928,8.452351541811304,3.0908146913572945,0.013250612745098039,0.0410614013671875,0.060516357421875,0.074127197265625,0.1504364013671875,0.2173004150390625,0.1837615966796875,0.0935516357421875,0.0545654296875,0.0426483154296875,0.08203125,sponge
3.6285943657487634,1.3065582197952739,0.5287829374013608,0.16149081732959808,0.748225957405669,0.026162584215405224,3.628594365748751,0.5287829374013604,4.290820935957125,6.095205538452296,2.1413047449306806,0.07565870098039215,0.03973388671875,0.0642242431640625,0.070037841796875,0.1460723876953125,0.1834716796875,0.1660614013671875,0.1046905517578125,0.0684051513671875,0.059967041015625,0.0973358154296875,sponge
2.6511551146193804,1.088032547577858,0.5827188113117641,0.20364182684736096,0.722839250616012,0.04159828660189898,2.6511551146193777,0.5827188113117641,3.941967891752808,5.4855431498500105,1.9534668674012114,0.11845894607843137,0.0380096435546875,0.0655059814453125,0.066925048828125,0.142913818359375,0.175506591796875,0.1634979248046875,0.109405517578125,0.0732269287109375,0.064727783203125,0.10028076171875,sponge
19.01102154219536,3.2350708561610984,0.28066913102020463,0.06131075791837857,0.7651835154104475,0.0037727666513833226,19.01102154219531,0.28066913102020374,5.58058240647834,8.657942264625259,3.222956114789529,0.01136642156862745,0.0443572998046875,0.0632476806640625,0.0782470703125,0.1487884521484375,0.202239990234375,0.171783447265625,0.0952606201171875,0.05975341796875,0.0473175048828125,0.0890045166015625,sponge
2.906288732098234,1.181429393142062,0.5547868296371108,0.18598700895127473,0.7661463085652784,0.03469424946078112,2.906288732098232,0.5547868296371108,4.10514393827723,5.762429042355993,2.033572051886675,0.0978860294117647,0.0367279052734375,0.0606842041015625,0.0645904541015625,0.143096923828125,0.19366455078125,0.1861419677734375,0.1030120849609375,0.0629119873046875,0.05474853515625,0.09442138671875,sponge
3.4314702428152697,1.3140118434015777,0.519715581190369,0.14931377776116553,0.8157573950972886,0.022393193339569826,3.431470242815263,0.5197155811903689,4.4563201089941336,6.264783450363026,2.129757479052566,0.06472120098039216,0.0360565185546875,0.0619049072265625,0.0648956298828125,0.1416473388671875,0.2067413330078125,0.189117431640625,0.1010894775390625,0.0571441650390625,0.0508880615234375,0.09051513671875,sponge
18.955673193603456,3.261810917075168,0.27820709049444736,0.06150318182170349,0.76690447969145,0.003797197687472496,18.95567319360342,0.2782070904944469,5.56552584494034,8.64914651597639,3.230722874515105,0.011488970588235295,0.0438385009765625,0.06402587890625,0.078094482421875,0.14263916015625,0.204742431640625,0.1835784912109375,0.0912017822265625,0.055908203125,0.046783447265625,0.0891876220703125,sponge
2.851634963115151,1.1696984783496749,0.5565494908662436,0.17739082075181226,0.7682162715404425,0.03156824521518348,2.8516349631151483,0.5565494908662436,4.145787851470241,5.800135112414649,2.0179302137892443,0.08474264705882353,0.0361785888671875,0.0637969970703125,0.0660552978515625,0.1417083740234375,0.18994140625,0.1796875,0.1044464111328125,0.062835693359375,0.057342529296875,0.0980072021484375,sponge
7.874122948505402,2.071513134972129,0.3879638858948186,0.09494208665064019,0.7853431802718865,0.009065625917856703,7.8741229485053825,0.3879638858948181,5.010691116642681,7.451657155433439,2.6459820957666436,0.028293504901960784,0.039459228515625,0.063323974609375,0.07391357421875,0.1451873779296875,0.212127685546875,0.1787872314453125,0.0939788818359375,0.058135986328125,0.046722412109375,0.0883636474609375,sponge
17.11823284614098,3.100952623390047,0.2873968284171196,0.06575275967586983,0.756261669142263,0.004338547421959788,17.11823284614091,0.287396828417119,5.456470847025972,8.470505699199865,3.1604050802169628,0.012561274509803922,0.0439910888671875,0.0653533935546875,0.076751708984375,0.14166259765625,0.2057342529296875,0.18438720703125,0.09295654296875,0.0558319091796875,0.04522705078125,0.088104248046875,sponge
2.7815367286620587,1.131235492358712,0.5695413851511657,0.18447601132903058,0.7405798292473187,0.03413708034433312,2.781536728662053,0.5695413851511654,4.080833485231761,5.695786519459995,1.992122849458975,0.0938265931372549,0.0381622314453125,0.0628509521484375,0.066131591796875,0.1413116455078125,0.181854248046875,0.1768035888671875,0.1052703857421875,0.0683135986328125,0.0614013671875,0.097900390625,sponge
2.0583578131007334,0.9607070297481759,0.6132053678612993,0.22958683608152755,0.7212393523817954,0.05285309629252655,2.0583578131007307,0.613205367861299,3.7410084242368518,5.130170049937669,1.8229514362011798,0.13273590686274508,0.036376953125,0.062286376953125,0.063568115234375,0.13995361328125,0.1778564453125,0.17535400390625,0.108673095703125,0.068267822265625,0.0653839111328125,0.1022796630859375,sponge
15.786380583789946,2.9715511311755134,0.29725136791464973,0.06965965989044992,0.755589660655331,0.004869435612135325,15.786380583789889,0.29725136791464885,5.386723996995379,8.338555571585186,3.106848236291084,0.015134803921568627,0.0443572998046875,0.064453125,0.077392578125,0.140960693359375,0.203033447265625,0.1795806884765625,0.093658447265625,0.0588531494140625,0.0467681884765625,0.0909423828125,sponge
2.2548252024461752,1.022767340085546,0.5953649357655723,0.2268134010017876,0.6991095191622348,0.05157642267857418,2.254825202446175,0.5953649357655724,3.7220965488651627,5.184039411292434,1.8881921738178788,0.15082720588235293,0.0368499755859375,0.06805419921875,0.06195068359375,0.13299560546875,0.1770782470703125,0.1806640625,0.1092376708984375,0.065582275390625,0.061920166015625,0.1056671142578125,sponge
3.6444397136918543,1.3638878225922735,0.509085830026635,0.15180978856617047,0.7998416287984844,0.023140258857760443,3.6444397136918494,0.509085830026635,4.394845074637695,6.236533663019592,2.17272667063098,0.06599264705882353,0.0365142822265625,0.0650634765625,0.068023681640625,0.13671875,0.199249267578125,0.1917572021484375,0.100067138671875,0.0575714111328125,0.0504150390625,0.0946197509765625,sponge
15.487587015811279,2.947694276239908,0.3005940283127523,0.06866317702202393,0.7734255492585601,0.004732901993371982,15.487587015811226,0.30059402831275184,5.446779726664003,8.384084716498075,3.096881173805328,0.014736519607843137,0.0431671142578125,0.0652008056640625,0.07635498046875,0.142974853515625,0.203155517578125,0.1854400634765625,0.0938720703125,0.054840087890625,0.0462493896484375,0.0887451171875,sponge
2.4341225430123066,1.072566651047677,0.5804666375156122,0.19233346045086014,0.7400527415035014,0.0371028204803642,2.434122543012303,0.5804666375156122,3.9740473347976066,5.5159590367767155,1.929302283384358,0.09375,0.0379180908203125,0.068450927734375,0.0661773681640625,0.13385009765625,0.1750946044921875,0.1767120361328125,0.1085205078125,0.0675201416015625,0.0603485107421875,0.10540771484375,sponge
6.481166618608242,1.867956885572858,0.41791424255988524,0.10512452776012608,0.7861089228642794,0.011113472495789273,6.4811666186082295,0.4179142425598849,4.866588365935529,7.158627471527767,2.5262838182847926,0.03163296568627451,0.040252685546875,0.0687255859375,0.07061767578125,0.1370391845703125,0.203369140625,0.1814727783203125,0.096923828125,0.0601959228515625,0.0481414794921875,0.09326171875,sponge
14.44624818279032,2.851323364210882,0.3067192139771668,0.07529088657679607,0.7381061673008925,0.0056878942798764456,14.446248182790272,0.30671921397716595,5.256634327336834,8.14287885068782,3.051482254645598,0.01885723039215686,0.043182373046875,0.0660400390625,0.07958984375,0.1398162841796875,0.1996917724609375,0.1870880126953125,0.09271240234375,0.0568389892578125,0.04559326171875,0.089447021484375,sponge
2.2946110720636352,1.030411335183586,0.5926940022857848,0.1916719674785105,0.7396880535648975,0.036849707192063666,2.2946110720636295,0.5926940022857845,3.9757721403357533,5.4837428587750505,1.8903611510228524,0.0910079656862745,0.038604736328125,0.066558837890625,0.0660552978515625,0.138092041015625,0.1679534912109375,0.175018310546875,0.1084442138671875,0.0711669921875,0.0637969970703125,0.10430908203125,sponge
1.8487156382160737,0.9099319672722047,0.6267759992443593,0.23333870140282492,0.7066509902262027,0.054595046987882,1.848715638216071,0.6267759992443593,3.6662985804762283,5.003464287937442,1.7704184275949455,0.13462009803921568,0.0373382568359375,0.0654449462890625,0.0618133544921875,0.1351776123046875,0.1662445068359375,0.176971435546875,0.1126708984375,0.0719451904296875,0.065887451171875,0.10650634765625,sponge
18.073065107170372,3.195475388071893,0.2802443243664305,0.06704145784840847,0.7260035818535209,0.0045094458239165695,18.07306510717032,0.28024432436643026,5.393170373438,8.445667057474799,3.1993847722523965,0.013357843137254901,0.0460968017578125,0.06475830078125,0.0797576904296875,0.143310546875,0.1939544677734375,0.1784820556640625,0.0935516357421875,0.0587158203125,0.047760009765625,0.0936126708984375,sponge
2.1911611819973116,1.0126422229431005,0.5968455099892266,0.22576670048317898,0.707520374416285,0.051101169574306916,2.191161181997309,0.5968455099892265,3.7200734877264363,5.1714343728892525,1.87485603273441,0.1452512254901961,0.0382537841796875,0.0689239501953125,0.062469482421875,0.129119873046875,0.1709442138671875,0.182769775390625,0.1085662841796875,0.06744384765625,0.0623931884765625,0.1091156005859375,sponge
3.5796898879036925,1.3512829350490205,0.5121054686708368,0.14795757452732072,0.8051826859357096,0.021988093001567684,3.5796898879036902,0.5121054686708368,4.428661279945217,6.2552017696627775,2.1637313953290818,0.061810661764705885,0.0386962890625,0.0678253173828125,0.0665130615234375,0.1327667236328125,0.1895751953125,0.192626953125,0.103363037109375,0.058746337890625,0.0516510009765625,0.098236083984375,sponge
17.420905796448523,3.1402753898740867,0.28586924662686775,0.06879056252866231,0.7266404487299033,0.00474901756433542,17.42090579644848,0.28586924662686763,5.366870920412577,8.388511941190512,3.1790771044003034,0.014568014705882353,0.04595947265625,0.0695648193359375,0.0792999267578125,0.1370391845703125,0.1936798095703125,0.18255615234375,0.09283447265625,0.0583343505859375,0.047760009765625,0.0929718017578125,sponge
2.4006460105488294,1.0681603980440235,0.5821510401356573,0.18925606864420247,0.7693675443888819,0.03592466252317553,2.400646010548827,0.5821510401356571,4.028385350747712,5.566015293110741,1.9295953771724454,0.09370404411764706,0.0392303466796875,0.0707244873046875,0.0641021728515625,0.1317138671875,0.1689910888671875,0.179351806640625,0.1083984375,0.0672149658203125,0.062408447265625,0.1078643798828125,sponge
6.266025702253948,1.8246934322135722,0.42701233375284825,0.10574447392462416,0.8043855505728033,0.011244654525525246,6.266025702253941,0.42701233375284814,4.896848151408346,7.147164954954599,2.5042533319220994,0.030912990196078433,0.04168701171875,0.070892333984375,0.069000244140625,0.1350555419921875,0.1941375732421875,0.1861419677734375,0.0968475341796875,0.06005859375,0.04962158203125,0.0965576171875,sponge
17.36894978794219,3.138515850273934,0.28517180775058026,0.06902301903133994,0.7244522631453585,0.004780505174803698,17.36894978794214,0.2851718077505795,5.360878943380675,8.380162450409678,3.1769059373436064,0.015012254901960785,0.046173095703125,0.0695953369140625,0.079498291015625,0.135711669921875,0.1884765625,0.1832122802734375,0.0934906005859375,0.0577392578125,0.048980712890625,0.0971221923828125,sponge
2.1012752306805123,0.9934126898308371,0.6004535619778182,0.19254365192772854,0.759373494657216,0.03718351371349829,2.101275230680508,0.6004535619778177,3.9715096196570583,5.436756887887247,1.8493857990085576,0.08933823529411765,0.0396270751953125,0.06610107421875,0.0650177001953125,0.13604736328125,0.16552734375,0.1717987060546875,0.1101226806640625,0.07220458984375,0.0649566650390625,0.1085968017578125,sponge
1.7815076382881607,0.9063963529652069,0.6252987537800407,0.2421179720792737,0.712410474154693,0.05878139927752425,1.7815076382881587,0.6252987537800405,3.6081754750992907,4.93037018957746,1.7591416279243297,0.1503216911764706,0.036376953125,0.06634521484375,0.0596466064453125,0.1341705322265625,0.1709747314453125,0.1807708740234375,0.1123504638671875,0.0692291259765625,0.063812255859375,0.1063232421875,sponge
19.936317777417393,3.3689755592800905,0.26867464815654074,0.0652267304644769,0.7079695618768764,0.004268170069244178,19.936317777417337,0.26867464815653985,5.412258259629247,8.53580243878077,3.268226527452046,0.012760416666666666,0.04803466796875,0.06939697265625,0.081268310546875,0.13677978515625,0.1888580322265625,0.1763458251953125,0.0953826904296875,0.0600738525390625,0.04840087890625,0.095458984375,sponge
1.247767234957711,0.6014936863225722,0.7435519521645966,0.255669582850057,0.9199626838220167,0.06555599241605138,1.2477672349577085,0.7435519521645969,4.00245626873743,4.795348157520397,1.405555005061903,0.15759803921568627,0.0138702392578125,0.036285400390625,0.0343170166015625,0.150665283203125,0.25408935546875,0.21337890625,0.10107421875,0.057037353515625,0.068115234375,0.0711669921875,styrofoam
0.9897676975201891,0.5832263732699008,0.7376148677833416,0.24294158510198582,0.9142689457463422,0.05919670860107028,0.9897676975201847,0.7376148677833411,3.972249141295034,4.75882478754043,1.3462604070130912,0.1326439950980392,0.0149078369140625,0.038543701171875,0.038604736328125,0.1512908935546875,0.250457763671875,0.2143096923828125,0.1014862060546875,0.05670166015625,0.0604400634765625,0.0732574462890625,styrofoam
2.7198736663783256,1.178521392012692,0.5414942645029036,0.12723115779640104,0.9096067326481352,0.016267646257898703,2.7198736663783163,0.5414942645029028,4.905344051294487,6.56021704288889,1.9705822219539793,0.04185049019607843,0.0157012939453125,0.0328369140625,0.049957275390625,0.183319091796875,0.316986083984375,0.1914215087890625,0.08355712890625,0.0406646728515625,0.035064697265625,0.0504913330078125,styrofoam
5.17880260897255,1.5260792874135016,0.4869526469625557,0.15030362220035343,0.7198537691936373,0.022676113966524386,5.178802608972512,0.4869526469625537,4.309175359992334,6.271007231763987,2.300280375674668,0.0644607843137255,0.033050537109375,0.0525970458984375,0.0710296630859375,0.1773681640625,0.2094573974609375,0.1581268310546875,0.09881591796875,0.065673828125,0.0536651611328125,0.0802154541015625,styrofoam
11.359537722871085,2.362094702157833,0.36453454001295693,0.10152696821967892,0.6742628881635344,0.010344462860505887,11.359537722871014,0.36453454001295527,4.808494376974183,7.38185276817769,2.8263725383792937,0.02847732843137255,0.0387725830078125,0.0567626953125,0.0802001953125,0.1778106689453125,0.1941070556640625,0.147735595703125,0.09808349609375,0.067352294921875,0.05389404296875,0.0852813720703125,styrofoam
17.644235900855502,3.110562193627454,0.28739621733024556,0.07265616019202743,0.6691269739862211,0.005308611513729683,17.644235900855442,0.287396217330245,5.229383542790249,8.207744959396145,3.1598553304335777,0.014905024509803922,0.0367584228515625,0.054473876953125,0.0785980224609375,0.1827545166015625,0.2144927978515625,0.1534271240234375,0.0915679931640625,0.0630645751953125,0.046844482421875,0.0780181884765625,styrofoam
1.2271663542868134,0.6605570573817782,0.7154487266641449,0.23035290365495173,0.9196742957100149,0.053226061510700494,1.2271663542868128,0.7154487266641448,4.17060261059353,5.095841847008387,1.4940581469333691,0.1371783088235294,0.013397216796875,0.0342864990234375,0.03564453125,0.15985107421875,0.2711334228515625,0.207672119140625,0.0965728759765625,0.055694580078125,0.0616455078125,0.0641021728515625,styrofoam
1.0400339713091151,0.5732199454536746,0.7498974457571386,0.270567376059753,0.9171349060407317,0.07339732625425044,1.0400339713091118,0.7498974457571381,3.8832205011778393,4.657977777293073,1.3864882107870105,0.17889093137254902,0.013519287109375,0.0353851318359375,0.03228759765625,0.1554107666015625,0.2478179931640625,0.207366943359375,0.1007537841796875,0.0633392333984375,0.071868896484375,0.0722503662109375,styrofoam
3.1059747452902817,1.1893226763744773,0.5509860344161901,0.12770143112255855,0.9255825817697566,0.01638212323727364,3.105974745290273,0.5509860344161905,5.027055063086371,6.671232666017298,2.0068350795497856,0.043596813725490194,0.0159759521484375,0.030181884765625,0.047882080078125,0.18304443359375,0.323760986328125,0.187591552734375,0.0827484130859375,0.0418853759765625,0.0366058349609375,0.050323486328125,styrofoam
9.814040858684159,2.1582245260236492,0.39236836590048463,0.11270631875291474,0.6780945531716411,0.012745864241605103,9.81404085868416,0.39236836590048346,4.673388254831616,7.102380187913417,2.7186076934139316,0.03432904411764706,0.0408782958984375,0.0613250732421875,0.080657958984375,0.17327880859375,0.1787109375,0.14453125,0.097412109375,0.0726165771484375,0.05908203125,0.0915069580078125,styrofoam
10.176473426686881,2.3018343756007336,0.36249929875209935,0.10193937802210111,0.649201436838849,0.0104407912163496,10.176473426686853,0.36249929875209796,4.731022115420611,7.280777352189549,2.776164317226132,0.028737745098039214,0.0386962890625,0.0599517822265625,0.0793914794921875,0.1727142333984375,0.1950531005859375,0.1514129638671875,0.0946197509765625,0.0695648193359375,0.052215576171875,0.0863800048828125,styrofoam
29.838701821414887,4.114110288110336,0.2266748589503788,0.05566535914261526,0.6629081315083082,0.0031104266126516697,29.838701821414837,0.22667485895037856,5.589128974548676,8.945411424574473,3.5297378567109825,0.008471200980392156,0.0389862060546875,0.05279541015625,0.08319091796875,0.1935577392578125,0.195709228515625,0.1486968994140625,0.09173583984375,0.064727783203125,0.0487823486328125,0.081817626953125,styrofoam
9.524511245674791,2.1918626549884768,0.3805488052673178,0.10924572143930603,0.6266344758537667,0.011972588576848355,9.524511245674741,0.38054880526731616,4.633511109152787,7.1224656983003065,2.7317882882685787,0.03224571078431373,0.04315185546875,0.06317138671875,0.081268310546875,0.1694183349609375,0.1704559326171875,0.1464691162109375,0.0997314453125,0.07135009765625,0.0594635009765625,0.09552001953125,styrofoam
17.349595242815386,3.0299054300028954,0.298487751576005,0.08122477000160191,0.59226518216263,0.0066233149630360744,17.349595242815262,0.2984877515760036,5.005291045165766,7.957922728427657,3.1388083204809343,0.01827512254901961,0.045654296875,0.065948486328125,0.087554931640625,0.165374755859375,0.1668853759765625,0.141754150390625,0.0944671630859375,0.07598876953125,0.0583953857421875,0.0979766845703125,styrofoam
33.66076135080279,4.393018235173972,0.21242063662591276,0.05474795717417505,0.5840201133563464,0.003006642296878312,33.660761350802574,0.2124206366259116,5.50896754816857,8.978839965883378,3.615761199930321,0.007720588235294118,0.04705810546875,0.0636749267578125,0.08734130859375,0.1703948974609375,0.1686553955078125,0.144439697265625,0.095123291015625,0.0713348388671875,0.05511474609375,0.09686279296875,styrofoam
12.696524548851396,2.468871272467316,0.3606945651452621,0.09952035161532764,0.6854334015853468,0.009941047637250358,12.696524548851405,0.36069456514526155,4.8828476273378625,7.491735920765321,2.8928669630530726,0.02666973039215686,0.0390167236328125,0.0579986572265625,0.0804901123046875,0.1815185546875,0.1914520263671875,0.13873291015625,0.093963623046875,0.073638916015625,0.0573272705078125,0.0858612060546875,styrofoam
10.150400401888728,2.100650275735303,0.4121667157631227,0.12167466051952959,0.6891131107209323,0.014901749254940488,10.150400401888698,0.4121667157631213,4.62674024425502,6.964867214318299,2.685328965753021,0.047166053921568626,0.0363311767578125,0.05706787109375,0.072967529296875,0.1761627197265625,0.2072296142578125,0.1487579345703125,0.092529296875,0.07171630859375,0.05535888671875,0.081878662109375,styrofoam
35.08637319480488,4.3865548857410515,0.22223620990866078,0.053994467446370646,0.6630954455163715,0.002926481328715624,35.08637319480488,0.22223620990866072,5.6696097123210585,9.099892474919224,3.6315245771892117,0.008394607843137255,0.0389556884765625,0.054046630859375,0.0820159912109375,0.194854736328125,0.19598388671875,0.1410980224609375,0.0942840576171875,0.067596435546875,0.04913330078125,0.08203125,styrofoam
12.67330263600542,2.4365290393118055,0.36406863586223304,0.10803845120171338,0.5801809957627799,0.011704464810506429,12.673302636005383,0.36406863586223126,4.631475388136596,7.2286073039256955,2.8743838011999743,0.030744485294117645,0.051727294921875,0.0723876953125,0.0872955322265625,0.1573486328125,0.141021728515625,0.1265106201171875,0.0971221923828125,0.085296630859375,0.0698699951171875,0.111419677734375,styrofoam
14.500457771650417,2.7245419580209607,0.32479868992401656,0.09449329453898023,0.5540412384162393,0.00896796238719964,14.500457771650328,0.3247986899240146,4.746065387365277,7.527096137888146,2.997833717694416,0.024494485294117647,0.0514373779296875,0.0728912353515625,0.087432861328125,0.1545867919921875,0.154205322265625,0.1276397705078125,0.0919189453125,0.0864105224609375,0.0651092529296875,0.108367919921875,styrofoam
41.10067947123711,4.867975403090147,0.19525951908534595,0.05080055260587934,0.5497241872366674,0.0025879071504889767,41.10067947123702,0.19525951908534567,5.576623706057248,9.184038083075377,3.7563029457882364,0.006985294117647059,0.0518035888671875,0.067169189453125,0.0902099609375,0.1658477783203125,0.1540985107421875,0.1318511962890625,0.095123291015625,0.078155517578125,0.0598602294921875,0.1058807373046875,styrofoam
10.530700511822431,2.332176957179936,0.3604057827055551,0.10645506983128664,0.5549414679383354,0.011363235366960241,10.530700511822378,0.3604057827055537,4.563147986198652,7.144895367891266,2.8027838123254223,0.02858455882352941,0.0539093017578125,0.0737762451171875,0.087127685546875,0.1495819091796875,0.142059326171875,0.1275177001953125,0.0984954833984375,0.08367919921875,0.069671630859375,0.1141815185546875,styrofoam
18.618947580257682,3.138560259275291,0.2893719432372135,0.08283431359308838,0.5244089468252118,0.0068831635197367826,18.618947580257593,0.28937194323721227,4.899830082277651,7.890456876675993,3.183834813441781,0.018152573529411766,0.0546875,0.0756072998046875,0.0890045166015625,0.1493988037109375,0.1410369873046875,0.126617431640625,0.0955657958984375,0.0851898193359375,0.0676422119140625,0.1152496337890625,styrofoam
36.227898734861796,4.58478995458478,0.20339461583333832,0.053427775769964186,0.5527455896440492,0.0028625812307804246,36.22789873486158,0.2033946158333374,5.499492587881345,9.031316936472344,3.66973581278629,0.007689950980392156,0.051971435546875,0.0682373046875,0.0911712646484375,0.163360595703125,0.1513214111328125,0.1357879638671875,0.0964202880859375,0.077117919921875,0.059295654296875,0.105316162109375,styrofoam
16.869358479911593,2.8252489427143384,0.3317701857672294,0.09561807076859577,0.590698310012806,0.009169473755621601,16.869358479911572,0.33177018576722883,4.83896579296158,7.629375484243322,3.070396891557943,0.025704656862745097,0.0494384765625,0.0693817138671875,0.088104248046875,0.16510009765625,0.1502532958984375,0.1197509765625,0.091400146484375,0.0845184326171875,0.070556640625,0.1114959716796875,styrofoam
12.797453383314174,2.353154796232228,0.38187687168366435,0.11917744414823125,0.5881641269450253,0.014263604763997871,12.797453383314112,0.38187687168366247,4.536537742974063,7.032842101172853,2.825385858962283,0.04181985294117647,0.047515869140625,0.0671844482421875,0.083038330078125,0.1623992919921875,0.1599273681640625,0.1288299560546875,0.0972900390625,0.082916259765625,0.06591796875,0.10498046875,styrofoam
51.43578320237411,5.391093299452119,0.18322623092831924,0.04677115479236473,0.5580550601631199,0.0021941195192293444,51.43578320237408,0.18322623092831922,5.728355825835216,9.463744394193304,3.905587055156982,0.005989583333333334,0.050872802734375,0.0673828125,0.0902099609375,0.169708251953125,0.15576171875,0.1288604736328125,0.0912322998046875,0.0808258056640625,0.0605926513671875,0.10455322265625,styrofoam
11.946835516988685,2.2686518556564863,0.39188271342116954,0.11752818054592032,0.5835367370730401,0.013853747854722282,11.946835516988658,0.39188271342116787,4.553110197628461,7.0237544675349595,2.7852101448028677,0.03598345588235294,0.0525054931640625,0.0757293701171875,0.085662841796875,0.1519927978515625,0.1356964111328125,0.1211090087890625,0.0984344482421875,0.088653564453125,0.0736541748046875,0.1165618896484375,styrofoam
13.197969485894877,2.4360269637879726,0.366352246752334,0.11289984439314432,0.5518022355269576,0.012796222722505555,13.19796948589485,0.36635224675233186,4.544525834542847,7.125147552903048,2.863931061184941,0.03632046568627451,0.0546722412109375,0.0774993896484375,0.0840911865234375,0.1463775634765625,0.1418914794921875,0.1206817626953125,0.0941619873046875,0.0894317626953125,0.0721282958984375,0.1190643310546875,styrofoam
41.91440263360258,4.942702025663186,0.19181496605093368,0.05112843485533321,0.5064954218221699,0.0026203811026475187,41.91440263360245,0.19181496605093346,5.513080359116259,9.156503541810173,3.775531966961148,0.0070465686274509805,0.0588836669921875,0.07452392578125,0.092193603515625,0.1516876220703125,0.13397216796875,0.1272430419921875,0.09368896484375,0.0845489501953125,0.0663299560546875,0.1169281005859375,styrofoam
8.536957975898737,2.030953644631882,0.401901205985138,0.12561071058414314,0.5404444211574884,0.015816374408801688,8.536957975898694,0.401901205985137,4.328748530427175,6.701034537710244,2.636000947429247,0.04157475490196078,0.058441162109375,0.0809326171875,0.0832366943359375,0.138427734375,0.12811279296875,0.12005615234375,0.09954833984375,0.0897674560546875,0.0762786865234375,0.1251983642578125,styrofoam
15.56630032619675,2.863309619497315,0.3083921025343133,0.08885101018978436,0.5365394541199554,0.007918126360975924,15.566300326196657,0.30839210253431193,4.796784523339423,7.661599110960386,3.059441377717999,0.02078737745098039,0.0580596923828125,0.0786590576171875,0.0883636474609375,0.1404876708984375,0.137939453125,0.1240234375,0.0946807861328125,0.0873870849609375,0.0704345703125,0.119964599609375,styrofoam
27.83602229310857,3.9957439746732026,0.2296274257970253,0.06263301560299457,0.5267815303988956,0.003932604560233669,27.836022293108414,0.2296274257970247,5.251118433775362,8.594525897953265,3.487974494515545,0.009865196078431372,0.057220458984375,0.07489013671875,0.091217041015625,0.147735595703125,0.1378021240234375,0.1310272216796875,0.0965576171875,0.0788116455078125,0.0667724609375,0.1179656982421875,styrofoam
16.16650463463575,2.691378180867938,0.35026934934249265,0.10345709531652973,0.5614764561995895,0.010733821711517186,16.166504634635718,0.3502693493424914,4.719676077793341,7.425505524326075,3.0097003243775964,0.02931985294117647,0.05401611328125,0.073455810546875,0.0870361328125,0.158355712890625,0.1375732421875,0.1120147705078125,0.0933990478515625,0.091552734375,0.074798583984375,0.1177978515625,styrofoam
12.676633025759394,2.295339893310277,0.39443557949057023,0.12265931278530903,0.5691898441644866,0.015115023720226039,12.676633025759326,0.39443557949056796,4.502337263625449,6.965417332898604,2.794999801449982,0.04440870098039216,0.0510406494140625,0.0731658935546875,0.0813751220703125,0.1563720703125,0.1493377685546875,0.1246490478515625,0.0938568115234375,0.0878143310546875,0.070892333984375,0.1114959716796875,styrofoam
42.49155198721657,4.874992430795837,0.2001166336127314,0.05196118699517683,0.5543366628403656,0.0027077080417964305,42.491551987216454,0.20011663361273102,5.58033781128872,9.181019422775261,3.7700139686977336,0.007306985294117647,0.0537872314453125,0.069366455078125,0.090179443359375,0.164581298828125,0.1514434814453125,0.125274658203125,0.091094970703125,0.08343505859375,0.062774658203125,0.108062744140625,styrofoam
10.53201129072955,2.053013279147452,0.42862520183435926,0.134070966512246,0.5587435067404374,0.018026684522079468,10.532011290729525,0.42862520183435826,4.39216683685075,6.702882976672038,2.665267550444417,0.04825367647058824,0.05389404296875,0.073944091796875,0.0827484130859375,0.1515960693359375,0.133514404296875,0.114959716796875,0.0979461669921875,0.0899658203125,0.07843017578125,0.1230010986328125,styrofoam
11.720758662533676,2.1934652537485664,0.40529386987332156,0.12615571349888896,0.5617007019246936,0.015974231380956168,11.720758662533642,0.40529386987332017,4.45403027381936,6.86842472553239,2.738712214189788,0.04522058823529412,0.054718017578125,0.0776214599609375,0.0826873779296875,0.143798828125,0.1400299072265625,0.119110107421875,0.093475341796875,0.09063720703125,0.0760345458984375,0.12188720703125,styrofoam
28.758235639537787,4.006224213643785,0.23370921655234653,0.06376592338942427,0.5151461278759745,0.00407591168699771,28.758235639537677,0.23370921655234572,5.2430829936706225,8.594168879318095,3.503821449033084,0.01052389705882353,0.0608978271484375,0.0757293701171875,0.089813232421875,0.145538330078125,0.13134765625,0.1210479736328125,0.094757080078125,0.085693359375,0.069854736328125,0.1253204345703125,styrofoam
7.632467785827604,1.792354848495779,0.45087202313757707,0.1458572923827301,0.5601625390669909,0.021328005021572248,7.632467785827567,0.4508720231375754,4.198952520018832,6.360221549517491,2.4913325337473107,0.0546875,0.05511474609375,0.079315185546875,0.08184814453125,0.140869140625,0.130615234375,0.1189117431640625,0.0978546142578125,0.090576171875,0.0795135498046875,0.1253814697265625,styrofoam
11.543071384803973,2.2904237552864357,0.3804666291068487,0.11339447599995205,0.5712248536725895,0.01289896632792082,11.543071384803923,0.3804666291068477,4.554082787076137,7.066939489493357,2.79072501286611,0.03618259803921569,0.0550689697265625,0.0783538818359375,0.0847015380859375,0.14324951171875,0.1380157470703125,0.1220550537109375,0.0974884033203125,0.0868988037109375,0.07318115234375,0.1209869384765625,styrofoam
21.240169436034307,3.4558335736255303,0.260764553224237,0.07227328899713267,0.5297296573576431,0.005235540079903574,21.24016943603422,0.2607645532242362,5.062815552541791,8.210917057943426,3.30031672559524,0.012806372549019607,0.0598297119140625,0.0789794921875,0.0881195068359375,0.1404266357421875,0.13641357421875,0.124969482421875,0.0975341796875,0.0826263427734375,0.0696258544921875,0.1214752197265625,styrofoam
14.142404333669747,2.4711838896097658,0.3759680700315158,0.11461975506512262,0.5424140343970072,0.013173872844436128,14.142404333669742,0.37596807003151533,4.573602564322755,7.1484030054038,2.90120916734528,0.036871936274509805,0.0553131103515625,0.0742340087890625,0.0877532958984375,0.152801513671875,0.131622314453125,0.1130828857421875,0.0933837890625,0.0922393798828125,0.0783843994140625,0.121185302734375,styrofoam
13.066285563244968,2.1853691789215786,0.42694893141937346,0.14317166470880552,0.5416148671947607,0.02056837935070213,13.066285563244906,0.42694893141937074,4.331350215773254,6.656942461305931,2.735046814276452,0.0646139705882353,0.0507354736328125,0.0746307373046875,0.0839080810546875,0.152618408203125,0.1405181884765625,0.116363525390625,0.09332275390625,0.0912628173828125,0.07794189453125,0.1186981201171875,styrofoam
33.65296732326522,4.295222886029406,0.22547712249699955,0.05858393901384969,0.5710401199916004,0.0034440972926550626,33.65296732326509,0.22547712249699914,5.440714055422858,8.860485028789856,3.6028016705590398,0.009543504901960785,0.05169677734375,0.06915283203125,0.08709716796875,0.1663818359375,0.1548309326171875,0.1287994384765625,0.091827392578125,0.0816650390625,0.062286376953125,0.10626220703125,styrofoam
9.36543150470976,1.860875804978861,0.466144153335846,0.1496798190370292,0.5554747406251755,0.02246794434520667,9.365431504709727,0.46614415333584647,4.275940290840168,6.423389002725869,2.5492723460640088,0.05968137254901961,0.0500030517578125,0.072052001953125,0.084136962890625,0.151519775390625,0.1370086669921875,0.1183624267578125,0.0987091064453125,0.0901947021484375,0.079315185546875,0.1186981201171875,styrofoam
9.999070745025975,1.921903159241646,0.45272794760622626,0.145590210398757,0.562043024435519,0.02126892786215929,9.99907074502595,0.45272794760622603,4.301610123889627,6.498854927092847,2.5781566626122996,0.058869485294117646,0.04962158203125,0.0738983154296875,0.083251953125,0.1494903564453125,0.14300537109375,0.122528076171875,0.0937347412109375,0.0870819091796875,0.0784149169921875,0.1189727783203125,styrofoam
23.61964107855156,3.61163283052191,0.2553261339774718,0.06850541312337918,0.5425954157245213,0.004705321098544817,23.619641078551517,0.2553261339774718,5.167629927025129,8.38091520998615,3.3667748574019907,0.011611519607843138,0.0572662353515625,0.0771026611328125,0.0891265869140625,0.1444549560546875,0.140869140625,0.1284027099609375,0.0927886962890625,0.084503173828125,0.06744384765625,0.1180419921875,styrofoam
6.80713414011441,1.580330897371211,0.5010117512597493,0.166956950074904,0.5690055671178791,0.027949077246131816,6.807134140114378,0.5010117512597493,4.0797103187731,6.0305087738945975,2.3480730990111907,0.07129289215686274,0.0491790771484375,0.0757598876953125,0.080657958984375,0.144989013671875,0.1381988525390625,0.1221923828125,0.0992584228515625,0.0887603759765625,0.079925537109375,0.1210784912109375,styrofoam
10.512080915393147,2.132135912269329,0.4043252291994318,0.11540613736549582,0.6083059855982259,0.01337138018105402,10.512080915393119,0.40432522919943,4.592744721444439,6.9999030616083875,2.7016315090481604,0.03625919117647059,0.051300048828125,0.074951171875,0.08270263671875,0.1475372314453125,0.1486358642578125,0.127197265625,0.0961761474609375,0.0852508544921875,0.0706634521484375,0.1155853271484375,styrofoam
16.80436741577763,3.039985897851796,0.29159268841052643,0.08000112774286655,0.5579199258133769,0.006416390846591323,16.804367415777588,0.29159268841052566,4.9561308180023325,7.930667242646222,3.1374619407150623,0.01640625,0.055938720703125,0.0754852294921875,0.0882415771484375,0.1422271728515625,0.1491851806640625,0.1282501220703125,0.095306396484375,0.0808258056640625,0.067657470703125,0.11688232421875,styrofoam
12.289225778546724,2.1878648536620626,0.41993227612482964,0.1301850290893846,0.550547929868322,0.016998515117361467,12.289225778546712,0.4199322761248281,4.448784538923361,6.816526258451503,2.7461919107522164,0.04577205882352941,0.05145263671875,0.0751190185546875,0.0852813720703125,0.1539154052734375,0.13482666015625,0.1147613525390625,0.094940185546875,0.0903167724609375,0.0799713134765625,0.119415283203125,styrofoam
11.377499264105216,2.014710733251647,0.4522274410182071,0.15428575264764488,0.5265651251267937,0.023875185792991138,11.37749926410515,0.4522274410182061,4.2285957048689475,6.4398788873400425,2.6422291423645343,0.06717218137254902,0.0503692626953125,0.0715789794921875,0.083038330078125,0.155517578125,0.1403350830078125,0.1146697998046875,0.096099853515625,0.0911865234375,0.0809326171875,0.11627197265625,styrofoam
33.12226748726461,4.268279658064206,0.22564614247413073,0.058971073038005584,0.5401853719081281,0.0034870152039528355,33.12226748726451,0.22564614247413028,5.390475653688832,8.821486224475349,3.596356521355691,0.009114583333333334,0.0572052001953125,0.0724945068359375,0.091949462890625,0.1530303955078125,0.141998291015625,0.122344970703125,0.0915069580078125,0.0841522216796875,0.068328857421875,0.1169891357421875,styrofoam
7.809233197568258,1.6291102280373,0.5109566342039127,0.17242270242140179,0.5678444605849342,0.02981691449829011,7.809233197568243,0.5109566342039122,4.119871169018696,6.054828425166459,2.3918064647004176,0.07758884803921569,0.045501708984375,0.0691375732421875,0.07958984375,0.1562042236328125,0.1447296142578125,0.122100830078125,0.0992279052734375,0.0890045166015625,0.0794830322265625,0.115020751953125,styrofoam
8.67344831314884,1.7150117442810566,0.49418959176037996,0.15535834254572878,0.5961348396012155,0.024235169643024794,8.67344831314879,0.4941895917603795,4.292940410525382,6.3101891508104435,2.4428474117987102,0.0660998774509804,0.04473876953125,0.0702972412109375,0.0786590576171875,0.15570068359375,0.1522369384765625,0.12518310546875,0.0982208251953125,0.0859832763671875,0.0761260986328125,0.11285400390625,styrofoam
14.968696399822221,2.809713346429263,0.31592961522988494,0.08452738994872352,0.5896263805452675,0.007167033960227928,14.968696399822184,0.31592961522988394,4.937048188065538,7.794985065178787,3.0459552963778886,0.017907475490196077,0.054595947265625,0.075469970703125,0.088226318359375,0.1460418701171875,0.144989013671875,0.1284027099609375,0.09503173828125,0.0830078125,0.06890869140625,0.115325927734375,styrofoam
5.077375949154199,1.3272546917051198,0.5479592707737565,0.17588423665197614,0.6296935815563841,0.031019904811443868,5.077375949154171,0.5479592707737566,4.0826506269291185,5.810003020310527,2.1439306055815215,0.0763327205882353,0.048309326171875,0.072967529296875,0.078460693359375,0.1422119140625,0.1407928466796875,0.125030517578125,0.1015167236328125,0.0855712890625,0.0828857421875,0.12225341796875,styrofoam
8.206882193747635,1.8197635975346116,0.4530668905111787,0.12759167953694212,0.6424348490882853,0.016346529182460337,8.206882193747598,0.45306689051117777,4.5211438244994175,6.703876659838452,2.5090443459789764,0.04181985294117647,0.04962158203125,0.0749969482421875,0.082183837890625,0.145050048828125,0.1451263427734375,0.128631591796875,0.099456787109375,0.0852203369140625,0.0728759765625,0.1168365478515625,styrofoam
11.842338914119631,2.519961583285281,0.3363882557140544,0.09276167181016304,0.5983292970159342,0.008629109995887074,11.842338914119571,0.3363882557140532,4.786357609531295,7.493873480413758,2.8941378975853485,0.02189031862745098,0.0555267333984375,0.07666015625,0.085693359375,0.13958740234375,0.14703369140625,0.1321868896484375,0.097625732421875,0.080291748046875,0.068084716796875,0.1173095703125,styrofoam
10.029018196126524,1.8864986123125775,0.4707317164354325,0.15076723879258525,0.5591495202400896,0.02280375381232095,10.02901819612649,0.4707317164354318,4.292593266254073,6.429000237095687,2.567074403028868,0.060294117647058824,0.0484619140625,0.07147216796875,0.0814971923828125,0.1565399169921875,0.1416168212890625,0.1168212890625,0.0968170166015625,0.0892791748046875,0.0803680419921875,0.11712646484375,styrofoam
9.920832387182852,1.8234753910755601,0.4884368732340737,0.17827158347494507,0.5219018005864363,0.0318769908030299,9.920832387182813,0.48843687323407353,4.051950619862335,6.08861612072139,2.5264084908723263,0.09806985294117647,0.046722412109375,0.069091796875,0.084136962890625,0.1600494384765625,0.1409759521484375,0.1149444580078125,0.0961761474609375,0.0913238525390625,0.082000732421875,0.1145782470703125,styrofoam
20.687530562163673,3.303892838691854,0.28021563379696535,0.07389693081966923,0.5951774131337759,0.005480916323653277,20.687530562163595,0.28021563379696474,5.146698929154121,8.207835975202881,3.2556334236284936,0.014797794117647058,0.0499420166015625,0.0706787109375,0.0895843505859375,0.15740966796875,0.159881591796875,0.128997802734375,0.0937042236328125,0.081756591796875,0.0630340576171875,0.105010986328125,styrofoam
7.03719117947426,1.5344954915176914,0.5289162121438249,0.19034844341785304,0.5408691591834756,0.03633082881367005,7.037191179474241,0.5289162121438244,3.953103628093618,5.794444971328017,2.3260956750479425,0.09920343137254901,0.0466156005859375,0.0710296630859375,0.07867431640625,0.1533050537109375,0.1393280029296875,0.1172637939453125,0.1004180908203125,0.088714599609375,0.08428955078125,0.120361328125,styrofoam
7.010336409073463,1.574043306660909,0.510827598650026,0.1594327469974697,0.602223897602349,0.025502972527222553,7.0103364090734335,0.5108275986500258,4.244702568136013,6.180457024385424,2.3515542658507016,0.06579350490196079,0.0472259521484375,0.0736083984375,0.07989501953125,0.1478729248046875,0.140106201171875,0.1247100830078125,0.09735107421875,0.0885162353515625,0.0805816650390625,0.1201324462890625,styrofoam
15.429505733972555,2.8661174037629786,0.30846523254094643,0.08392278226180326,0.5635415394138861,0.007061583939208221,15.429505733972508,0.3084652325409456,4.903349941033533,7.790000394631388,3.067621500130061,0.017064950980392155,0.0585174560546875,0.0802764892578125,0.0885467529296875,0.137115478515625,0.1344146728515625,0.1239166259765625,0.097320556640625,0.0838623046875,0.0725250244140625,0.123504638671875,styrofoam
5.032065822039624,1.2891831266820508,0.5632968804960874,0.1871989790812869,0.6014502815188435,0.035138273108079106,5.0320658220396,0.5632968804960864,3.9957299124290984,5.673936268416927,2.120416110357354,0.08682598039215686,0.046844482421875,0.073486328125,0.07666015625,0.14306640625,0.1371307373046875,0.1248626708984375,0.0999603271484375,0.090179443359375,0.084747314453125,0.1230621337890625,styrofoam
7.612329963235337,1.7398426086120833,0.46744624194725704,0.12193107190679096,0.6929852824405744,0.014930190360912046,7.612329963235295,0.4674462419472558,4.646064353863631,6.777728009380304,2.4599415115502303,0.03678002450980392,0.0499114990234375,0.075531005859375,0.08172607421875,0.1450347900390625,0.1438140869140625,0.1262664794921875,0.097076416015625,0.0855712890625,0.077178955078125,0.117889404296875,styrofoam
9.632372269679985,2.2540647377210794,0.36496998578044454,0.09946915908056084,0.6333423437469705,0.009922630363583217,9.632372269679932,0.36496998578044304,4.721989880594425,7.273624974336701,2.7531837130221533,0.02498468137254902,0.0551910400390625,0.077789306640625,0.08575439453125,0.139923095703125,0.1424407958984375,0.130401611328125,0.0990447998046875,0.0821075439453125,0.0690765380859375,0.1182708740234375,styrofoam
9.572273344386812,1.839353403738953,0.4815723714450544,0.15026318539209998,0.5627419536472202,0.0226490394690624,9.572273344386774,0.48157237144505427,4.321690407013662,6.425484768031858,2.5453608515600203,0.060355392156862746,0.0478668212890625,0.0712127685546875,0.083343505859375,0.15631103515625,0.1375274658203125,0.114349365234375,0.0960845947265625,0.0909423828125,0.082977294921875,0.119384765625,styrofoam
8.458308673346846,1.6822312932526056,0.5085811931380917,0.1901586416898065,0.5072710068616894,0.036264284510502946,8.458308673346789,0.508581193138091,3.948658139409819,5.885683291726679,2.4365523320287785,0.0984375,0.0470733642578125,0.0704803466796875,0.080230712890625,0.156707763671875,0.142822265625,0.1148681640625,0.0970306396484375,0.0923309326171875,0.0838470458984375,0.1146087646484375,styrofoam
13.648806648885099,2.5435574658785165,0.3512064855514479,0.09641704233576641,0.598848425898026,0.009327217338747133,13.648806648885046,0.35120648555144685,4.8177140415945585,7.49188906606317,2.924820547298477,0.024831495098039214,0.052093505859375,0.072845458984375,0.08685302734375,0.1535797119140625,0.1455535888671875,0.1226959228515625,0.095306396484375,0.0847320556640625,0.070068359375,0.11627197265625,styrofoam
6.615050746708031,1.4631979136630213,0.5421400421027267,0.19206428489911986,0.5383047406964143,0.03699001915988738,6.615050746707997,0.5421400421027264,3.94368076109783,5.727438732431114,2.2711716263664434,0.09537377450980392,0.0475006103515625,0.0729522705078125,0.078369140625,0.1484832763671875,0.133758544921875,0.118011474609375,0.0991668701171875,0.0898895263671875,0.088470458984375,0.1233978271484375,styrofoam
5.910401528258393,1.3985090470011614,0.5462104550926072,0.1641441105774632,0.6425600811699967,0.02703498836854679,5.910401528258362,0.5462104550926071,4.2534644311567575,6.031777563777834,2.2153899011048166,0.06452205882352942,0.047271728515625,0.0735015869140625,0.0780792236328125,0.1451873779296875,0.1365966796875,0.1237945556640625,0.0998687744140625,0.0900115966796875,0.083953857421875,0.121734619140625,styrofoam
10.303728689085972,2.2637064019848223,0.3719403501362034,0.09644782270964491,0.6586748972500573,0.00933334388836746,10.30372868908593,0.3719403501362022,4.824225795726185,7.3737907193383485,2.76912121128005,0.02193627450980392,0.0554656982421875,0.077484130859375,0.086151123046875,0.1409912109375,0.14166259765625,0.1234130859375,0.0973968505859375,0.0854949951171875,0.0719146728515625,0.120025634765625,styrofoam
3.904310106089019,1.1492546286284184,0.5890601363837551,0.16537245988444885,0.7462406565551478,0.027429166180438082,3.904310106089005,0.5890601363837548,4.344125016528422,5.916746546781682,2.0004120089391684,0.06985294117647059,0.0478363037109375,0.0745849609375,0.0752105712890625,0.138275146484375,0.1329193115234375,0.124053955078125,0.10198974609375,0.08917236328125,0.088134765625,0.1278228759765625,styrofoam
5.960199637759557,1.4935945760044294,0.5099144537747127,0.12387047960924952,0.7700220929275525,0.015409681163982794,5.960199637759516,0.509914453774712,4.730085862124357,6.659235725150709,2.2757676815426313,0.03439031862745098,0.0503997802734375,0.076416015625,0.078887939453125,0.1409454345703125,0.13836669921875,0.1243133544921875,0.0998992919921875,0.0884552001953125,0.0803680419921875,0.1219482421875,styrofoam
6.832775149581932,1.8282563647395325,0.42614632401907765,0.11413453417213523,0.6897965659416214,0.013066458242386276,6.8327751495818925,0.42614632401907604,4.605593506362738,6.858453908824615,2.4999056247964297,0.03160232843137255,0.055511474609375,0.0802764892578125,0.0828094482421875,0.1333160400390625,0.1376495361328125,0.126373291015625,0.1014862060546875,0.082733154296875,0.0751953125,0.1246490478515625,styrofoam
7.981631433823555,1.6735095576220744,0.5012538265533858,0.15264056542586324,0.59604742907406,0.02337256011793352,7.981631433823529,0.501253826553386,4.321412287735736,6.320135076765617,2.4293838944267634,0.05954350490196078,0.0492095947265625,0.0714111328125,0.0806427001953125,0.1536712646484375,0.1357421875,0.1159515380859375,0.0970916748046875,0.0917816162109375,0.084442138671875,0.12005615234375,styrofoam
7.569524386654197,1.5760321601066973,0.527508595267223,0.1945732034751525,0.508707347883492,0.037959495040025146,7.5695243866541695,0.5275085952672222,3.922309525309723,5.777910046235487,2.366460418148141,0.10698529411764705,0.0474395751953125,0.072174072265625,0.0790252685546875,0.1520843505859375,0.135345458984375,0.1152191162109375,0.0950775146484375,0.0922698974609375,0.0892181396484375,0.1221466064453125,styrofoam
12.783487886269716,2.46862314073914,0.3579077854326096,0.09439630628291312,0.6251564039195203,0.008939212238501843,12.783487886269706,0.35790778543260887,4.85898284168602,7.502215974485071,2.8887816203300316,0.022870710784313724,0.0545806884765625,0.075592041015625,0.088165283203125,0.145111083984375,0.13970947265625,0.1214752197265625,0.09722900390625,0.0848388671875,0.073699951171875,0.119598388671875,styrofoam
