@RELATION wavelet_glcm

@ATTRIBUTE contrast NUMERIC
@ATTRIBUTE dissim NUMERIC
@ATTRIBUTE homo NUMERIC
@ATTRIBUTE energy NUMERIC
@ATTRIBUTE corr NUMERIC
@ATTRIBUTE asm NUMERIC
@ATTRIBUTE entropy NUMERIC
@ATTRIBUTE idm NUMERIC
@ATTRIBUTE shade NUMERIC
@ATTRIBUTE prom NUMERIC
@ATTRIBUTE diffvar NUMERIC
@ATTRIBUTE maxprob NUMERIC
@ATTRIBUTE class {aluminium_foil,brown_bread,corduroy,cotton,cracker,linen,orange_peel,sandpaper,sponge,styrofoam}

@DATA
73.3507248928552,4.094877748349205,0.5906169201992585,0.4793097962202263,0.9144385931072222,0.22983673389982176,73.35072489285604,0.5906169201992628,4.53533377259876,6.21074048326375,3.0724874183462627,0.4934178149606299,aluminium_foil
71.62821020173436,4.56744790052086,0.43739846582876896,0.21829573866995838,0.9278315163159994,0.047700340258687746,71.62821020173291,0.4373984658287612,6.002197246804441,8.438176068472409,3.6054867560909627,0.22139517716535434,aluminium_foil
67.24254024679972,4.507372807714392,0.44685319052271,0.25066657171966594,0.9280665496615809,0.06292336589922543,67.24254024679925,0.44685319052270606,5.8219710536821,8.190451453612347,3.5679526045814707,0.2631028543307087,aluminium_foil
140.1732922840893,6.314589597929336,0.34879011326437087,0.09471401031146384,0.8007386515958602,0.00902326830450718,140.1732922840846,0.3487901132643625,6.095983233790767,8.884798979763625,3.995676097610248,0.07062007874015748,aluminium_foil
116.24000647610981,6.1152036171260775,0.32017002283588836,0.08819394434930614,0.814269638773458,0.00781418716213948,116.24000647610671,0.3201700228358815,6.17472225139705,9.158719278351132,4.038764777481865,0.07055856299212598,aluminium_foil
137.20437069390113,7.1404354879023355,0.27530067082980914,0.07989145653249302,0.7896111678995428,0.006413183244470785,137.20437069389766,0.27530067082980236,6.435940517233995,9.765398507869833,4.298986575774238,0.07554133858267717,aluminium_foil
67.06535333773803,4.530145743885256,0.4613856818584689,0.3208086755511339,0.9153538463513007,0.10297903258836112,67.06535333773793,0.46138568185846746,5.539061561432672,7.870428973825214,3.5469701477238136,0.32910925196850394,aluminium_foil
105.13035998337702,5.5066087046236945,0.4707973194602,0.3308524839273372,0.8993578769433267,0.10953136908943888,105.13035998337621,0.4707973194601963,5.459938199539724,7.751769625731093,3.6834841112388226,0.3384596456692913,aluminium_foil
56.868121376868544,4.072879934822419,0.44843620276147456,0.205287427341096,0.9376686920313282,0.042193896510283754,56.868121376867755,0.44843620276146823,5.933410812659603,8.258062755203344,3.4757736947209956,0.20896899606299213,aluminium_foil
192.63967816607533,7.83676687275245,0.444190823083457,0.34183891514519565,0.7953176016456966,0.11703871314628345,192.63967816607507,0.4441908230834554,5.428998626254634,7.679556712133349,4.024140923344132,0.3578986220472441,aluminium_foil
179.3294525534404,7.902735246876853,0.34725429495827054,0.18916753535644604,0.8159362355918058,0.035867568122867156,179.32945255343637,0.34725429495826277,6.20136126630341,9.069297963193078,4.311337511390427,0.19605068897637795,aluminium_foil
135.54965398602877,6.993318154605111,0.35694892302197256,0.215650398421234,0.8361375174907291,0.046686217132960256,135.54965398602673,0.35694892302196707,6.016803687938685,8.773489135897016,4.164710057687406,0.2361589566929134,aluminium_foil
171.0836471282352,7.7550254006758745,0.3063460165101258,0.14806148668096997,0.7829963169639444,0.02200909789948689,171.08364712823175,0.3063460165101204,6.295930676341013,9.408948227838284,4.352715823464374,0.1561884842519685,aluminium_foil
144.74965355009127,7.615809329274967,0.2612047181527771,0.09869173544242438,0.7749353105014135,0.00979606439702542,144.74965355008834,0.26120471815277324,6.444226962340505,9.836106228930156,4.406737215280932,0.10414616141732283,aluminium_foil
154.10966102401233,7.729038387764371,0.2797009323572664,0.12025088705332743,0.7868796601846075,0.01451603237329356,154.10966102400954,0.27970093235726157,6.420604057001091,9.677155189610374,4.402093521377443,0.1234621062992126,aluminium_foil
176.27901085099285,8.114046442936663,0.34342326197654205,0.22771189988194646,0.794244221422626,0.051957505838887655,176.27901085099046,0.3434232619765375,6.026035352128205,8.884007589662982,4.343025030808185,0.23825049212598426,aluminium_foil
244.179261854621,9.183373237840271,0.39648416954371446,0.2882952397888376,0.7680703436594023,0.08327429961353428,244.17926185461747,0.39648416954370924,5.724289184641647,8.238391793662935,4.306147133790487,0.3027805118110236,aluminium_foil
136.66250438360535,6.8839446077330475,0.3534313840722719,0.1805939659543554,0.8403724643976525,0.03270089437240347,136.66250438360254,0.3534313840722656,6.107645385105323,8.912394800991184,4.159676074680384,0.1894069881889764,aluminium_foil
243.93030786452232,9.298034474975145,0.4056790169670649,0.3259256223329421,0.7114295520430896,0.1064676109680785,243.93030786452198,0.405679016967064,5.509526274650622,7.859339016036095,4.272563467263904,0.34454970472440943,aluminium_foil
260.7160902915614,9.971398809985258,0.32292763131966695,0.19771258388170543,0.7417435556605991,0.039214818375591286,260.7160902915556,0.32292763131966007,6.1979768334444225,9.111136733181459,4.587035637322881,0.21007627952755906,aluminium_foil
150.54460739390436,7.625130539323614,0.30439531315451895,0.16568978747708463,0.8025353611140804,0.0275878532290531,150.5446073939023,0.30439531315451446,6.220157548859113,9.295088820667612,4.352971464658302,0.1825172244094488,aluminium_foil
201.22825394088767,8.5293841837685,0.29223140854903784,0.13043431919598558,0.7580755002276702,0.017093641815855525,201.2282539408829,0.2922314085490309,6.29937857712005,9.43618588480216,4.475420138826903,0.13681102362204725,aluminium_foil
165.61966120807506,8.286027157991867,0.2575956788071627,0.1233694322981959,0.7490785380945484,0.015312522508464264,165.61966120807244,0.2575956788071595,6.376127455884996,9.772045201883756,4.514174099275943,0.13551919291338582,aluminium_foil
169.07768918272413,8.50585767968413,0.2605106427906967,0.13529492765684326,0.7491640253265931,0.018387100360094555,169.0776891827221,0.26051064279069375,6.3877903842088095,9.743729595436845,4.542808027067386,0.14413139763779528,aluminium_foil
194.45036514682613,8.802373757091297,0.31675083381043784,0.2093067000622566,0.749430001923971,0.04392976240128131,194.45036514682403,0.3167508338104344,6.113749787152253,9.108063068367334,4.479610828264288,0.2186884842519685,aluminium_foil
332.2719200711901,11.456090470774809,0.3283733287712222,0.2342980292236107,0.6694511518446236,0.05509637678590864,332.2719200711839,0.3283733287712166,6.028110953800553,8.802043572346228,4.68746596183621,0.25110728346456695,aluminium_foil
174.72959965842108,8.153759702050719,0.2967115551262324,0.13339289927407047,0.783836126052297,0.01788670192049216,174.72959965841807,0.29671155512622704,6.335809104754553,9.433123066358226,4.434440962358911,0.14173228346456693,aluminium_foil
289.76963357442355,10.471674783193228,0.38444836384018577,0.31637094721123926,0.6471008549014744,0.10040002669148738,289.7696335744234,0.38444836384018516,5.57138177024205,7.985600664975535,4.425444673442273,0.33981299212598426,aluminium_foil
276.1222247678921,10.401227989956062,0.31521554608283464,0.19749423393211604,0.722931019742205,0.039149624776986094,276.122224767887,0.31521554608282903,6.215030827694503,9.185121928647924,4.647662291666013,0.21173720472440946,aluminium_foil
186.91995190631334,8.758559286649898,0.2703726980870849,0.14535496257920888,0.7505667167539545,0.021279801596755847,186.91995190631005,0.27037269808708075,6.3321023992108065,9.601794530005135,4.554901657150219,0.16369340551181102,aluminium_foil
245.2811365349339,9.890269104757056,0.2849035473261603,0.1657474565992052,0.7087116416634165,0.027598485234989478,245.28113653492932,0.28490354732615525,6.26343749939886,9.391517152512682,4.658450367024111,0.17882627952755906,aluminium_foil
195.91297882986788,8.968838761896377,0.2445018043041503,0.11026976141686781,0.725655271623756,0.012251940110471964,195.9129788298639,0.24450180430414614,6.443851013455028,9.887448228045443,4.615194553754529,0.12155511811023623,aluminium_foil
191.5928202403315,9.007682445052481,0.24464776372025104,0.12355926504188597,0.7249589169252462,0.01534652933675639,191.59282024032797,0.2446477637202468,6.3823590440477,9.769354368274357,4.625644139197597,0.13207431102362205,aluminium_foil
236.37997890058662,9.849327589280255,0.28565894659942276,0.17491746149022808,0.7160439278590188,0.03074311536965252,236.37997890058278,0.2856589465994183,6.275503546412826,9.417025509276902,4.656605520402268,0.18460875984251968,aluminium_foil
366.1627479036255,12.185031377875266,0.32897470521374184,0.24694601359777799,0.6297394794636892,0.0612333625143888,366.16274790362087,0.3289747052137379,5.988164237447449,8.718985543196796,4.735442839140642,0.26642470472440943,aluminium_foil
206.43208491886156,9.041503512694623,0.2722325259824426,0.1194446777261612,0.7476483879662318,0.01438388003367974,206.43208491885736,0.2722325259824371,6.408869194332389,9.610783027175586,4.578260194634694,0.1299827755905512,aluminium_foil
314.843507812016,11.414550266600443,0.34967275375609186,0.2906358906918857,0.5950761839824594,0.08479243627598441,314.8435078120157,0.3496727537560911,5.7017564469521,8.26513209194557,4.600145373078569,0.31385334645669294,aluminium_foil
303.2923044283654,11.145826471340595,0.2891898994916682,0.18192346926714942,0.6901901470438558,0.03323734206140435,303.2923044283589,0.2891898994916623,6.303719485676558,9.374968414277365,4.774082087207167,0.195189468503937,aluminium_foil
198.7176846150595,9.173491362607777,0.2613134349028927,0.1436106618734666,0.7261642634026769,0.02083094351685599,198.71768461505673,0.26131343490288905,6.323773782968531,9.591639224694143,4.618188912999631,0.16516978346456693,aluminium_foil
259.598157458039,10.310705023753933,0.27512852539729504,0.15997320739848908,0.6867176866151352,0.025753310119829773,259.59815745803365,0.2751285253972898,6.307694724326749,9.51167029297362,4.719405955376345,0.1765501968503937,aluminium_foil
191.8045666481978,9.152972954383428,0.2303914190772849,0.11249511117905744,0.6949885490964531,0.01277708593191857,191.80456664819582,0.23039141907728272,6.449368409210889,10.000502742174982,4.659634544825832,0.12739911417322836,aluminium_foil
194.71770798620037,9.178234008811836,0.2363248783679084,0.11929754337159898,0.7009975216946034,0.014315667551535592,194.7177079861972,0.2363248783679049,6.394214530418339,9.836252352727836,4.655595606777855,0.1267839566929134,aluminium_foil
242.83549720224704,10.190837834800696,0.2874799091272821,0.1990260459337133,0.6795781077157207,0.03979853749978354,242.83549720224443,0.287479909127279,6.154693973275563,9.225417171802707,4.6811751528673975,0.21333661417322836,aluminium_foil
289.2159092560353,10.484332980384572,0.40507447502914934,0.3525838772712877,0.5847833842911139,0.12462571122963603,289.21590925603726,0.40507447502915145,5.3042223202049055,7.585151399470735,4.339013372860136,0.374876968503937,aluminium_foil
226.60159180475017,9.715182328802243,0.2625129233993158,0.13570687158557798,0.7201205131639874,0.018550332977697974,226.60159180474614,0.2625129233993115,6.396346694301673,9.616551185912813,4.681288263591175,0.1484375,aluminium_foil
356.4582303227116,12.38461704267151,0.32869036208171826,0.27421075686820773,0.5602101407469328,0.07552657772355649,356.4582303227106,0.3286903620817174,5.801135432417988,8.40574495181722,4.727624523116347,0.29773622047244097,aluminium_foil
345.0335283834722,12.095390944688367,0.24583392008634747,0.11987876813461756,0.6490296670690763,0.014507049375344788,345.033528383463,0.24583392008634153,6.518446142229245,9.809246685021094,4.940742057538893,0.13219734251968504,aluminium_foil
214.57216753887016,9.543377442223742,0.24404563670473672,0.12132782748478521,0.6976182005334909,0.014929428764237784,214.57216753886632,0.24404563670473325,6.4041297165405116,9.749473219444127,4.6826720298068025,0.1423474409448819,aluminium_foil
295.30487277381457,10.980185632246425,0.27703702067161523,0.16799833763943742,0.6773253226224993,0.028418773787015558,295.3048727738081,0.2770370206716092,6.300946694831909,9.45597469856465,4.7742014217470965,0.1857160433070866,aluminium_foil
220.6627021300958,9.663894663726916,0.22630657082264327,0.10540432523163625,0.673090103613756,0.011249341685181807,220.66270213009176,0.22630657082264,6.4720080128814015,9.977892262545994,4.717342040936263,0.12050935039370078,aluminium_foil
204.6844799158385,9.451444941952461,0.23430873400339502,0.12228198127296527,0.6839766875027331,0.015074020362624944,204.68447991583486,0.23430873400339136,6.394435273882187,9.83434353700202,4.690106385534937,0.13164370078740156,aluminium_foil
316.0267003776263,11.858524556893046,0.23530523412280008,0.13340108302387127,0.6402738257916802,0.017963701450617004,316.02670037761953,0.2353052341227954,6.479477654613396,9.827428054118332,4.94057184301131,0.1454847440944882,aluminium_foil
299.23625110921824,10.995594963846033,0.3915779369565675,0.3490064701123311,0.5200600785393837,0.12209826503917813,299.236251109221,0.39157793695657006,5.270057958437738,7.52424433155889,4.4024008356999955,0.36767962598425197,aluminium_foil
253.59760539052732,10.604880233198024,0.23248598455855382,0.11923307728106279,0.6735444482072266,0.014331182745444818,253.59760539052328,0.23248598455855035,6.491078391395311,9.918064484299567,4.825274013921511,0.12979822834645668,aluminium_foil
307.1821986261142,11.294530499217105,0.37204646415965825,0.3296511242939376,0.523214744174887,0.10902508007682321,307.182198626116,0.3720464641596602,5.398903869293237,7.714488043011864,4.490074029340107,0.3534694881889764,aluminium_foil
355.0306166784294,12.430145719666669,0.24007367206978242,0.12936068332794387,0.6329063502370932,0.016901772600916624,355.03061667842087,0.24007367206977684,6.511892852976143,9.81797812299649,4.980887460472061,0.14554625984251968,aluminium_foil
246.32361388551294,10.309483669748676,0.2596252574167924,0.1562427839135412,0.6680626677378866,0.024705441052750722,246.32361388550902,0.2596252574167887,6.254128211320766,9.409433487283913,4.73849781960264,0.18190206692913385,aluminium_foil
336.26143284709195,12.142554632765718,0.24723851334309915,0.148123533286524,0.6381501646070961,0.022174500291031025,336.2614328470845,0.2472385133430936,6.432265893882674,9.698712816189925,4.940041495728195,0.16959891732283464,aluminium_foil
272.64159060349965,10.650960856609366,0.2164297032134192,0.08307094296345602,0.6339206309413774,0.007041260506156909,272.64159060349374,0.21642970321341487,6.5258540422702325,10.036165244876045,4.825511230997513,0.09651820866141732,aluminium_foil
243.82452705530864,10.375944775327174,0.24348230866353537,0.143030509569448,0.657109663278655,0.020635817338297918,243.82452705530415,0.24348230866353113,6.35450215840849,9.652875612781555,4.782297958666111,0.15391240157480315,aluminium_foil
302.5088281153155,11.80117904376436,0.2598638053964748,0.18809100485812985,0.6081857937599391,0.03560847724420849,302.5088281153125,0.2598638053964721,6.219941655606549,9.397789414655309,4.874858401037488,0.2047859251968504,aluminium_foil
251.99066898133634,9.860910956196784,0.4289971338758954,0.3944391409623949,0.47321273248316054,0.15588616142046582,251.990668981338,0.4289971338758981,4.890811302754897,6.891712713761015,4.171187870664313,0.41326279527559057,aluminium_foil
251.54190275959013,10.655483353935505,0.24204572499879218,0.14442098039847795,0.664436490096185,0.021050218687251578,251.54190275958678,0.24204572499878887,6.377463952681325,9.696279101591294,4.810587665725035,0.1625246062992126,aluminium_foil
276.2902509164373,10.62730223897935,0.3923073604516337,0.35526612581701994,0.4858040756693229,0.12655417802345217,276.29025091643933,0.3923073604516363,5.1656913513666645,7.341872824080018,4.3650339641995455,0.3765378937007874,aluminium_foil
345.0697307644644,12.603228026768532,0.2685102014729443,0.20272499388939416,0.5898475221833257,0.041399692537739646,345.0697307644615,0.26851020147294197,6.206508125019994,9.255172301191205,4.920129695819131,0.22742372047244094,aluminium_foil
243.4819136435173,10.398974915137371,0.2886574431718271,0.21494116581803607,0.6116616644227613,0.04669220657328735,243.48191364351482,0.2886574431718244,5.933812156099625,8.800512254864154,4.669680007615666,0.25086122047244097,aluminium_foil
336.60170127371964,12.23251862909981,0.27249810524939033,0.1950626019464572,0.6101493873389174,0.038354982109736036,336.6017012737151,0.27249810524938656,6.229250850968485,9.269723550620334,4.885556040990722,0.2204109251968504,aluminium_foil
312.41199385133746,11.857382398358693,0.216254269836573,0.11227320144896591,0.6057347830009443,0.01288058042395255,312.4119938513315,0.2162542698365688,6.516561272937222,9.93323483762298,4.9581260173109065,0.13558070866141733,aluminium_foil
280.80816289757945,11.297532056001648,0.25488920529073583,0.17381560292942136,0.6097157968705739,0.0304074310382526,280.8081628975758,0.2548892052907328,6.249733719908965,9.407174779810697,4.84605387585936,0.18676181102362205,aluminium_foil
304.9934392485987,11.851153807776335,0.28851233819949196,0.23144203041815964,0.5554824251799408,0.053871191110533165,304.99343924859727,0.2885123381994905,5.944078277863721,8.805064403041623,4.79550846548751,0.25246062992125984,aluminium_foil
251.91024331657906,9.982262757494153,0.4222976690404643,0.3901230455376175,0.40992519106533537,0.15253766727261447,251.91024331658036,0.42229766904046695,4.850999248311186,6.800183894262505,4.196221819664443,0.4098794291338583,aluminium_foil
294.3725157567539,11.681367194765691,0.2531719823078141,0.1758947885113303,0.594517942879232,0.03116442254302449,294.3725157567503,0.25317198230781074,6.222398931562667,9.335778962135791,4.876913199701044,0.19654281496062992,aluminium_foil
233.4453082617088,9.446112083630307,0.43713976273921656,0.4039046503282397,0.4394640015290546,0.16347985450731695,233.44530826171027,0.4371397627392191,4.768626412208428,6.67510782213531,4.109258425134273,0.4269192913385827,aluminium_foil
333.4144552078173,12.380004209227105,0.29033857301099036,0.23737547522532093,0.5494040705454166,0.056702038494471876,333.4144552078167,0.29033857301098953,5.966800021849657,8.821168943021917,4.831693146157573,0.2637795275590551,aluminium_foil
257.1530859350794,11.057025461707177,0.2644566411180996,0.19649589329625386,0.5441207389598613,0.03910670471854398,257.15308593507814,0.26445664111809786,5.985357506667594,8.943738120889364,4.7732113443605915,0.23228346456692914,aluminium_foil
337.5282221658221,12.390333647854774,0.281537887147878,0.22023869080226327,0.5696330426125347,0.048892750985738295,337.52822216581933,0.28153788714787575,6.069518664761128,8.97851477529261,4.861387919909658,0.2496924212598425,aluminium_foil
293.7164970462789,11.716821093798487,0.2278262246861161,0.14399368509985883,0.5789124274830488,0.021102278147193287,293.7164970462754,0.2278262246861135,6.359478947829969,9.635999716126177,4.926821046003733,0.17261318897637795,aluminium_foil
301.72732805622206,11.839390131905306,0.25960128855069164,0.1893407073473089,0.5750803776982405,0.03608258406621559,301.72732805621865,0.2596012885506887,6.166256222894578,9.230717154447412,4.875368928916698,0.2017716535433071,aluminium_foil
246.0272738787657,10.326860899815472,0.3556566430492211,0.31068703136168513,0.4885773853468729,0.09691222142798245,246.02727387876655,0.35565664304922207,5.353125378775779,7.745196690675783,4.4568700492089866,0.3374753937007874,aluminium_foil
180.75016371907682,7.898124835312114,0.5016283686316203,0.47258020857293564,0.3443510077113083,0.22360689986541882,180.75016371907745,0.5016283686316223,4.193890439760387,5.728133580630963,3.724371110453237,0.4909571850393701,aluminium_foil
303.35955821521327,12.225295977935737,0.24036319376052753,0.17658995210110676,0.5276170084349597,0.03142828252282624,303.3595582152102,0.24036319376052512,6.168188617046283,9.303322790164524,4.934025283356263,0.19611220472440946,aluminium_foil
9.510141621845742,1.4132443889887782,0.7076030075490729,0.6091993134117677,0.9012539509040105,0.3712826911845643,9.510141621845744,0.7076030075490733,3.1281856823190024,4.203307731171034,2.0846880613761725,0.6280142716535433,brown_bread
10.777869419020092,1.5323825921089336,0.6900472165639682,0.5895147408741249,0.8855083304267601,0.34763018363334064,10.777869419020089,0.6900472165639686,3.226056604069111,4.370796706337147,2.1844390023275593,0.6012549212598425,brown_bread
27.587736835629922,2.861627711536674,0.5455460567637858,0.4223578944901578,0.9164592387654907,0.17855050826510516,27.587736835629922,0.5455460567637866,4.658739872448223,6.490844950143563,2.9650582680890256,0.4418676181102362,brown_bread
29.066881786107327,3.059978217612685,0.5107498503085178,0.3917587662746852,0.822342998342299,0.15364289590467475,29.066881786107324,0.5107498503085185,4.486878838774991,6.38931320437702,3.103133617987194,0.4079109251968504,brown_bread
70.79998275621544,5.498328176343859,0.33358820335685074,0.21867494137052035,0.7813221936279049,0.04796477290756488,70.79998275621551,0.333588203356851,5.699956861467843,8.553208483812522,3.9487847550848496,0.2312992125984252,brown_bread
71.63273584750297,5.081396112010977,0.411651640148471,0.29990687040974356,0.8319413322817522,0.09010327910274538,71.63273584750294,0.4116516401484712,5.428558030325918,7.896625111652879,3.7460772884263442,0.3167445866141732,brown_bread
8.81888189557629,1.2489462400799816,0.7500596665247814,0.6637535028204915,0.9276213986473506,0.44066205211302373,8.81888189557629,0.750059666524782,2.8795117252192868,3.8107319047265324,1.88062587621452,0.6779650590551181,brown_bread
10.305500040687592,1.7805168969712948,0.5904392453151893,0.4257459408444856,0.9323231890057926,0.18135671400956074,10.305500040687582,0.5904392453151897,4.231633951623765,5.793907001760884,2.534906411641702,0.43356299212598426,brown_bread
29.418434719681912,2.9731009071393157,0.5220334833754336,0.36978486656912174,0.9349709601730825,0.1368648468552968,29.41843471968194,0.5220334833754339,5.088767044378872,7.061388807386733,3.063783639487451,0.38478100393700787,brown_bread
13.518920451903401,1.5020539962954929,0.7479276272390312,0.6840875836022982,0.8162808302143487,0.46809940072167244,13.518920451903403,0.7479276272390316,2.6078607147874604,3.489254143449847,1.9540481996122117,0.6995570866141733,brown_bread
21.99865404027685,2.448379205352161,0.5926456327686329,0.4940645336480664,0.8003769951977187,0.24427045049861562,21.998654040276833,0.5926456327686334,3.776822691566189,5.265142028371315,2.737218229889284,0.507320374015748,brown_bread
52.81865762950267,4.162238340101682,0.4678723426929401,0.3564196167804361,0.8503464858382075,0.1272443773036558,52.818657629502766,0.46787234269294076,5.044387026091101,7.207987429903184,3.4422068972912125,0.3769069881889764,brown_bread
26.085261432241616,2.707483051684854,0.574242857488985,0.48037448866340404,0.7954474497950056,0.23095689313731207,26.085261432241616,0.5742428574889854,3.9033474040744727,5.456038636599603,2.846130545352321,0.49883120078740156,brown_bread
69.75598192212017,5.866408502348264,0.2296571155783066,0.07596786297810237,0.8186972176999513,0.0058278930406456386,69.7559819221201,0.22965711557830645,6.4591972304093925,9.908432859322492,4.090334890930272,0.07984744094488189,brown_bread
63.938271974200106,4.731793397180539,0.42991532320873854,0.31899424851787717,0.8411120977263388,0.1019289148246947,63.9382719742002,0.4299153232087392,5.313956910894772,7.64359595915446,3.6416331238342132,0.3378444881889764,brown_bread
25.874630542229824,2.663544823183397,0.5782528182612324,0.47836716633481313,0.843576826217616,0.22909500584971146,25.874630542229834,0.5782528182612332,4.008972729998633,5.577219684915139,2.831379655880506,0.499384842519685,brown_bread
25.63992265484533,3.3727331204662416,0.35709184462104215,0.16899801847967036,0.8188904288076551,0.028659189860314103,25.63992265484531,0.3570918446210422,5.322822582814562,7.90917999990118,3.3779713979077624,0.17138287401574803,brown_bread
59.874550499100906,4.450183626929756,0.44663955164073277,0.3221881037175256,0.8632294341785712,0.10399387079482492,59.874550499101,0.44663955164073327,5.3365574592391045,7.6220790370441165,3.558286228885928,0.34048966535433073,brown_bread
39.72498537184579,4.487055294423094,0.26049294522801486,0.0874119860666924,0.7801508068380754,0.007694755171667401,39.72498537184574,0.26049294522801486,5.842582806284241,8.98985198586244,3.721068855010529,0.0843996062992126,brown_bread
49.820860571408716,5.071080962474427,0.2306208417030873,0.06887078434521823,0.7649628335172952,0.004778793369608287,49.820860571408645,0.23062084170308722,6.039908031431085,9.415844796343464,3.881887868883592,0.06434547244094488,brown_bread
97.54673271455923,6.382550089318936,0.30832705213762746,0.17795050829460377,0.8144591263595533,0.031846230604804265,97.54673271455918,0.3083270521376273,6.1558698327427726,9.145291979639214,4.153863916350067,0.1972194881889764,brown_bread
47.090200977277,4.873767263159536,0.25670106491119377,0.10033479033174851,0.7520668286111822,0.010132083391268107,47.09020097727696,0.2567010649111938,5.828942896972439,9.00159176224062,3.840566831735083,0.10088582677165354,brown_bread
88.72680941065022,6.754347637601531,0.19981468984344344,0.06676100208965835,0.7636213609801561,0.004508619807439569,88.72680941065006,0.19981468984344358,6.464769750735156,10.102198506120668,4.27459995397216,0.07049704724409449,brown_bread
99.7858326810404,6.591763574152149,0.2971557658388373,0.17916807052394526,0.7924462925817815,0.032246780555558276,99.78583268104038,0.29715576583883757,6.09251881302834,9.111465540272043,4.201003316318081,0.1954970472440945,brown_bread
44.91757991719109,4.215885521614798,0.4009092614977364,0.28304007849629653,0.7897276016778847,0.08036835753443283,44.91757991719109,0.40090926149773654,5.0980533666202605,7.447536008416005,3.5805056212273736,0.30099655511811024,brown_bread
35.629402493180024,4.378594796252094,0.22984274656763004,0.05055458625244403,0.7603954879522108,0.0025635661266622755,35.62940249317998,0.2298427465676301,5.879547191762163,9.2472676378541,3.6502656633676818,0.01894685039370079,brown_bread
98.28945593438078,6.4381012316712125,0.31149753536756164,0.18729888368437145,0.8160438724959725,0.035275512066204835,98.28945593438061,0.3114975353675616,6.128930229063391,9.0967776325918,4.1578371453133105,0.20583169291338582,brown_bread
49.98388917090335,5.16160574508649,0.21612424785038925,0.056085820096588475,0.7466847085116379,0.0031709929711543905,49.98388917090334,0.2161242478503892,6.020802002296556,9.482847173645537,3.8866040533311184,0.04447588582677165,brown_bread
55.56338289629706,5.565135126363999,0.18104381857952048,0.03763849075761436,0.7247262094334349,0.0014203234963377721,55.56338289629704,0.18104381857952034,6.174627197818539,9.945647806004377,3.9585461027961486,0.003967765748031496,brown_bread
128.9766786291387,7.775846180598594,0.23231316804370233,0.10353500440706431,0.7779386420843016,0.010851132868861746,128.97667862913852,0.23231316804370272,6.543597509225643,10.008805687614254,4.454264298188946,0.1187869094488189,brown_bread
53.8568269402164,5.33098984166719,0.2248332035972969,0.07646836521322818,0.7341985643779142,0.005898990937329867,53.85682694021638,0.2248332035972969,5.946683713552344,9.30878632828514,3.9462356690848224,0.07381889763779527,brown_bread
94.01299314317379,7.085895117102735,0.19092947303548757,0.06948444786883919,0.7315440236251791,0.004881617796227507,94.01299314317377,0.1909294730354876,6.386216243361725,10.0632831348598,4.331895988335654,0.0732652559055118,brown_bread
122.12274922596734,7.7134377276566894,0.22098778672473807,0.09974375970226862,0.7708804728714951,0.010065625412387426,122.1227492259672,0.22098778672473834,6.506763559197473,10.00861277080003,4.449254137629189,0.11355807086614174,brown_bread
54.563515615312454,5.213570931048112,0.25709737419562045,0.1146495543534391,0.7328381247395287,0.013251949666982742,54.56351561531247,0.2570973741956205,5.773471922820641,8.923277974800047,3.9302317606719663,0.1186638779527559,brown_bread
37.267357491746274,4.539856997682745,0.2138328524681417,0.04855652886977331,0.721559264113168,0.0023640139351863098,37.26735749174624,0.21383285246814124,5.84952188415673,9.342958783587049,3.679454018999677,0.007689468503937008,brown_bread
132.32074674305602,7.864619580801648,0.24711474803798497,0.13296416632799318,0.7600190253850324,0.01786568597292739,132.320746743056,0.24711474803798522,6.391202417779276,9.727003151760925,4.454820155561894,0.15052903543307086,brown_bread
50.342663181420164,5.282963843271441,0.1967919696168364,0.04750068588026995,0.697572436010778,0.002269206423000731,50.34266318142012,0.1967919696168362,5.943115823733306,9.49862602651741,3.8949718537397744,0.024913877952755906,brown_bread
64.0390426405854,6.053304848797196,0.1663125389543367,0.03627369819382117,0.679853364179213,0.0013191902388752482,64.03904264058528,0.1663125389543364,6.157484253857406,10.017927355969185,4.067215158163211,0.005843996062992126,brown_bread
133.52282645971545,8.374133451391877,0.17579854736118844,0.05661868882031858,0.7396208688363398,0.003280890450263463,133.52282645971542,0.17579854736118866,6.672319336495716,10.50573587448675,4.552343472845133,0.06489911417322834,brown_bread
55.69921378514634,5.515874816905891,0.2044688917491001,0.061718189817051475,0.6980211933278921,0.00383967014097392,55.69921378514632,0.20446889174910018,5.933118125094863,9.407158713898342,3.974786454507412,0.05216535433070866,brown_bread
103.25165196424146,7.613219976439961,0.1596671369424635,0.048664413945297365,0.6973175826968228,0.0024020258625486197,103.25165196424142,0.15966713694246354,6.4479953269731265,10.330096911734167,4.410590615601403,0.04828986220472441,brown_bread
141.7956409311257,8.602509091736902,0.17924254505971382,0.0623909368877937,0.7402787842037755,0.003973999825454554,141.7956409311256,0.1792425450597143,6.669593147781644,10.46003721389927,4.593376523509558,0.07166584645669291,brown_bread
56.32314452519529,5.142596046910845,0.2936598314117723,0.1697169306749471,0.6844742968062153,0.028991783454866204,56.3231445251953,0.29365983141177254,5.45159079633438,8.327353579866642,3.9064772432245376,0.18091781496062992,brown_bread
43.85348983197972,4.910978962582924,0.2017224864814306,0.04681447815266951,0.6806487570718094,0.0021970169729685005,43.85348983197967,0.20172248648143054,5.858887499072107,9.44401707731185,3.7903355147548776,0.006951279527559055,brown_bread
151.01740605043696,8.856159227943404,0.17598829335331811,0.061348983248730504,0.7281066912571329,0.0038349331306949193,151.0174060504371,0.17598829335331878,6.695438593067575,10.538257056659736,4.635336163588158,0.06895915354330709,brown_bread
48.72988083866801,5.247744382207523,0.1900046061201518,0.04445024547734742,0.6599198356411011,0.0019802505573048917,48.729880838667924,0.19000460612015166,5.875762236471056,9.504589702430643,3.877661441158099,0.009227362204724409,brown_bread
63.93502253801394,6.0902853797895125,0.16231793694451335,0.037383329685095924,0.631672708793908,0.0014078839559911033,63.93502253801382,0.16231793694451307,6.067830001179249,9.955447999381574,4.043374996002009,0.003998523622047244,brown_bread
147.31428250356504,9.006151816991089,0.14664149141004806,0.03610636823925145,0.7076790731095417,0.0013209236388836668,147.31428250356498,0.1466414914100484,6.742032906024489,10.83081408422699,4.6487558313073745,0.03291092519685039,brown_bread
55.06708171228846,5.415719065813134,0.22419934345302606,0.08603873232844386,0.6320728477525679,0.0074521586520579575,55.06708171228843,0.22419934345302597,5.687442918467806,8.99915580219321,3.9700112114098998,0.08187746062992125,brown_bread
129.99364862010978,8.720606613088197,0.1238732074864661,0.02570440243161973,0.6433734341607942,0.0006673480898895699,129.99364862010975,0.1238732074864663,6.603841195697351,10.875229727673887,4.547940635329022,0.009719488188976378,brown_bread
153.96913980156057,9.139979205739623,0.17047268784836525,0.07011178048039272,0.6905200197841019,0.004967397225400398,153.96913980156083,0.1704726878483658,6.580589616220873,10.421442816604364,4.673910500416309,0.07363435039370078,brown_bread
52.60732148808049,5.204349260261023,0.2392526013794898,0.09758196146571754,0.6374758051278293,0.00958885207215091,52.60732148808047,0.2392526013794898,5.611217160882156,8.819004418924589,3.9261303889258867,0.09270423228346457,brown_bread
50.05387011555274,5.291146285417575,0.18823034096532337,0.04538217225514504,0.6319831949755453,0.002068036406247123,50.053870115552726,0.18823034096532335,5.841967418455232,9.502328697292866,3.8804197302777874,0.0063976377952755905,brown_bread
157.47408600676565,9.388484663688038,0.14060755305145073,0.035975740976307485,0.6913575520149304,0.0013132186695003394,157.47408600676576,0.14060755305145117,6.7487907263615465,10.878048147205448,4.701025779494891,0.03383366141732284,brown_bread
59.64701210261801,5.771816414726588,0.18630830797622278,0.049455530604892224,0.6678009904030281,0.0024577318291116425,59.64701210261796,0.18630830797622266,5.969513304342288,9.590042153198054,4.025078167763523,0.031619094488188976,brown_bread
71.83188109344968,6.45802446292393,0.1556105929852985,0.036291874051061546,0.6160492571433202,0.0013272075211638577,71.83188109344968,0.15561059298529842,6.096708685414105,10.019324661910797,4.125453834325933,0.005105807086614173,brown_bread
142.8940012215962,8.781496910650045,0.17312186103256066,0.06952749854641427,0.7177585494434753,0.004887006386938123,142.89400122159617,0.17312186103256094,6.603063840674118,10.418626017732299,4.6193997206985,0.07209645669291338,brown_bread
58.8640378452633,5.826493379549268,0.1727946850207274,0.040332717706234714,0.6656668760563877,0.0016318545188176183,58.864037845263184,0.1727946850207272,6.030119621629611,9.769815635673567,4.013596374762809,0.013225885826771654,brown_bread
104.71615592449983,7.955706723913458,0.12568969068025232,0.027274643040904642,0.6255814384730514,0.0007467681845485484,104.71615592449935,0.12568969068025204,6.4359071085315325,10.684716205860958,4.4117765883664575,0.002276082677165354,brown_bread
150.95087737441085,8.753849456917628,0.22962442560248786,0.14687908579920225,0.6849628157040473,0.021827500343633115,150.950877374411,0.2296244256024885,6.212402525402289,9.538432436659686,4.576199940673305,0.1701525590551181,brown_bread
44.982902133773024,4.640323354865465,0.29588881142674184,0.15832662248113502,0.6364587890852036,0.02520569606962609,44.98290213377302,0.29588881142674184,5.264963030873211,8.086725829003468,3.782061990118332,0.16209399606299213,brown_bread
40.646374179467124,4.445892661316573,0.2825397789694778,0.1299169358018597,0.5781731134552972,0.016982178850955196,40.64637417946712,0.2825397789694778,5.183685584878004,8.070244795381726,3.728421209637347,0.12887549212598426,brown_bread
170.03375083312625,9.792218451624384,0.1564792528635205,0.07139098470125971,0.6287001907315068,0.005176812603724507,170.03375083312665,0.15647925286352068,6.518762189840417,10.41225407145674,4.753935512698395,0.0810777559055118,brown_bread
39.73012254227629,3.8177887801088106,0.449317732854584,0.3533013511282218,0.565115413926517,0.1251204033149008,39.730122542276334,0.44931773285458443,4.276897813626992,6.203663783402285,3.405277221392118,0.37272391732283466,brown_bread
73.71356572400647,6.320461687798379,0.1995915956635936,0.08275114271465145,0.574907397424985,0.0069488830045149625,73.71356572400646,0.19959159566359372,5.763007504974231,9.202346545317667,4.16633589095075,0.0859990157480315,brown_bread
142.49227541423838,8.594191993071476,0.22904540805447665,0.1497694362552845,0.6537444314525762,0.02266346025697475,142.49227541423835,0.22904540805447676,6.102030941882724,9.403243193990019,4.546240570574539,0.17076771653543307,brown_bread
61.13124094216937,5.826517598347691,0.19725676373561546,0.06340074737562258,0.6287046581464822,0.004055938000319174,61.131240942169384,0.19725676373561568,5.855751317447448,9.379083587013445,4.046359231964478,0.05530265748031496,brown_bread
121.73835644936922,8.55809835447796,0.1272369050909482,0.03228446630565803,0.6158114439091098,0.0010582723434248054,121.73835644936915,0.12723690509094812,6.462141697628064,10.62949409840449,4.524109791587908,0.025713582677165354,brown_bread
135.3453353625457,8.120871663618313,0.2754507849931372,0.2024892701162187,0.650712133779974,0.04134173357582138,135.3453353625457,0.27545078499313735,5.823877352598254,8.814422565648432,4.418153269556804,0.2296998031496063,brown_bread
46.71186023622049,4.853098940572888,0.2629542967645503,0.1215100038493045,0.6275739190939076,0.014886547805672175,46.711860236220474,0.2629542967645503,5.418417683443655,8.43327925258382,3.8357606747883293,0.12327755905511811,brown_bread
26.82954167861461,2.7800442671197856,0.5661829432140343,0.4796058852050338,0.5727934854242599,0.23035824367090488,26.82954167861461,0.5661829432140346,3.5502326474515815,4.970583664390251,2.8939451054074548,0.5026451771653543,brown_bread
135.40599703465026,8.232981813619865,0.2576511855922374,0.18011827588197557,0.6624482117889932,0.03272137305365184,135.4059970346503,0.2576511855922375,5.95176894628818,9.072435752578324,4.459715221502556,0.20404773622047245,brown_bread
38.141225384013254,3.7867457297414573,0.44254721045412687,0.3377041063030598,0.6225310799884227,0.11433925733373981,38.14122538401327,0.44254721045412737,4.414088352002798,6.446450961980841,3.4117022319233983,0.3564837598425197,brown_bread
55.13124614921102,4.715689349347452,0.39578812474642744,0.30476946999189514,0.568192432233126,0.09355763674550165,55.13124614921105,0.39578812474642777,4.660920157163653,6.850926932916012,3.6809667266691912,0.34128937007874016,brown_bread
124.54648447187506,7.866975948795633,0.26650654852801586,0.18913807615164158,0.662399154027003,0.03599871010070017,124.54648447187519,0.2665065485280162,5.861128964046642,8.911919621317107,4.397475050380583,0.20589320866141733,brown_bread
37.28577055982238,4.021805516267284,0.3738044413080715,0.2455853668990619,0.6814172973928674,0.060534940764495636,37.28577055982237,0.37380444130807167,4.9210244226568145,7.366196065413297,3.5639139396224686,0.2552903543307087,brown_bread
94.50040953988169,7.220021002542007,0.19958992799645325,0.09668622915209273,0.6580354194094922,0.009565295877769364,94.50040953988157,0.19958992799645336,6.08509989129573,9.596824266464182,4.3256924588212335,0.11318897637795275,brown_bread
119.5783966138244,7.628849214729668,0.2838337364718106,0.20587121271526432,0.7004746418778574,0.04263602422765113,119.57839661382448,0.2838337364718108,5.8389105059537565,8.830621304621271,4.336404902329377,0.22613188976377951,brown_bread
35.33626033658315,3.207968759687522,0.5665261012101539,0.4960950875539373,0.5669758858766316,0.24635781826852785,35.33626033658318,0.5665261012101543,3.603504416206527,5.049360694107528,2.9713515005359166,0.514886811023622,brown_bread
20.80149643111787,2.2873168090086184,0.624241185208547,0.5440024669102552,0.5716712294698763,0.296279071750062,20.80149643111786,0.6242411852085473,3.1649197888472784,4.365983304651449,2.603489807995672,0.5682824803149606,brown_bread
130.74231150024806,8.371596047879583,0.21141922526342039,0.1265457336224498,0.6862512639232392,0.0161567058983668,130.74231150024798,0.2114192252634205,6.236372473946396,9.697478480281308,4.524788525765747,0.13933316929133857,brown_bread
4.926433583335918,1.5093158819130137,0.5290361572297142,0.2663885082369558,0.933570556123348,0.07104012129174181,4.926433583335917,0.5290361572297141,4.71753283115388,6.359353474684413,2.349357690629164,0.26654773622047245,corduroy
12.226721738599739,2.3552651909991322,0.4521722995757301,0.20301312290882859,0.9459712872504208,0.041303518611791275,12.226721738599727,0.45217229957573035,5.496088133055668,7.449317847369363,2.7769535701223904,0.20675442913385828,corduroy
19.101681051018353,2.9769648953360437,0.41184597159144615,0.2528883463391987,0.8555102091477487,0.06410155616869741,19.101681051018353,0.41184597159144604,5.062937789395794,7.334671517004296,3.166815994499049,0.26790108267716534,corduroy
41.194161259416305,4.8022555693548945,0.22612813998048786,0.06441828106325584,0.7854095510317403,0.00418181371761931,41.194161259416276,0.2261281399804879,5.9587350519887,9.213878565015929,3.741681301951631,0.05296505905511811,corduroy
71.35576385605906,5.97153940011005,0.2383167383877707,0.09740623653550859,0.7908300529683295,0.009587654412194746,71.35576385605897,0.23831673838777068,6.090521075586368,9.307406768223267,4.026940941363548,0.10291584645669291,corduroy
69.66587370284111,5.626877077972903,0.3668592095573838,0.2932994805740949,0.546720035994233,0.08646166048406907,69.66587370284115,0.36685920955738427,4.887949346661545,7.249080387667528,3.85848638645541,0.31360728346456695,corduroy
7.302068236948974,1.7484809969619937,0.5297784011479184,0.30356382305008156,0.9370674532788912,0.09232066110212875,7.302068236948974,0.5297784011479186,4.750736696529254,6.414240347537841,2.4727744122767676,0.3184670275590551,corduroy
12.400849571230395,2.396838696021143,0.44916026056055247,0.1959745010984731,0.9488447036341805,0.038571070354974764,12.40084957123039,0.44916026056055247,5.560770106961643,7.542338423182711,2.7511180304928535,0.20527805118110237,corduroy
19.47922668892212,2.8601627164191834,0.46245312431244945,0.32746543332657096,0.8765283698003121,0.10738579671020825,19.47922668892213,0.46245312431244967,4.823908711628197,6.890550992314235,3.0711193373327075,0.33796751968503935,corduroy
14.56317086071672,2.655710889546778,0.39855788661697367,0.19406489273618913,0.8457694136701742,0.037774700798863706,14.563170860716724,0.3985578866169739,5.111070308817524,7.430733341824327,3.0452670483378084,0.20127952755905512,corduroy
25.924566677258362,3.5434940557381123,0.3269466791946892,0.12000444528197964,0.8803589568873132,0.014538964068089584,25.924566677258355,0.3269466791946891,5.797689924482256,8.522676841364486,3.371359628997295,0.1269069881889764,corduroy
64.97872899261428,5.577202869249495,0.32800787148001664,0.23684321687661614,0.6567583453968489,0.056366635436151336,64.97872899261424,0.32800787148001664,5.287170018875034,7.988239550471823,3.9238149825077215,0.25326033464566927,corduroy
29.162693048042353,3.6204353619644767,0.38580946367028646,0.2463378832731633,0.7896881016161941,0.06083675542600295,29.162693048042346,0.3858094636702867,5.0745117975598415,7.498410929242609,3.4098129779030564,0.26039616141732286,corduroy
67.02707758540497,4.711602063829114,0.46113102586968935,0.36756177531605905,0.7806287960091313,0.13532207822472275,67.02707758540518,0.46113102586969035,4.789787899766613,6.942705924451306,3.5157256492499456,0.390625,corduroy
102.97550050568847,7.041286027884542,0.31471801932131327,0.246402165494504,0.5257812172846313,0.061048050448661566,102.9755005056885,0.31471801932131355,5.2750735222210965,7.9402226778954965,4.17704647872281,0.2607652559055118,corduroy
18.774064887973537,2.6530048021033563,0.47158911859338004,0.3068625012440155,0.8435082358624901,0.09440024356853734,18.774064887973527,0.47158911859338,4.719982067105014,6.753349706334622,3.0120614637834935,0.32695620078740156,corduroy
26.959121816681154,3.4928656263562536,0.3373507735057777,0.12191793114853633,0.8822464557747509,0.015029147517068277,26.959121816681133,0.3373507735057778,5.794069962257531,8.49179565781565,3.3377928246928805,0.1296136811023622,corduroy
60.29907648877794,4.834944287076076,0.448074333710317,0.3781114252609576,0.665772917907016,0.14325409640141448,60.29907648877798,0.44807433371031746,4.594619760067866,6.674797382211776,3.5580641905188894,0.3937623031496063,corduroy
18.348562638531543,3.139812822594397,0.32783060671385766,0.1309285281117587,0.7276041509678441,0.017240621604489914,18.348562638531526,0.32783060671385744,5.134713648720706,7.757276442095073,3.237299023162226,0.13152066929133857,corduroy
50.527164651985586,4.880796648312053,0.27458527387441617,0.11417770082244205,0.7942040747636898,0.013173159785904802,50.52716465198556,0.27458527387441634,5.832596978868242,8.873132181113077,3.79826177610175,0.12247785433070867,corduroy
85.61726233608712,6.227455447098397,0.3596721763367578,0.29471133241760006,0.48453677040745324,0.08721437345127155,85.61726233608718,0.3596721763367581,4.909973409634331,7.28413057839878,3.973364402475899,0.3141609251968504,corduroy
32.72761299038223,3.9762872533557614,0.33629697150525456,0.1918387281978426,0.7513141949014761,0.03701763223022358,32.72761299038223,0.33629697150525456,5.2616355553754115,7.888621035110118,3.5414295249180876,0.20884596456692914,corduroy
93.86179845406554,6.2189881918826195,0.33220877414029004,0.2240276827040472,0.7749929520079134,0.050521423190328874,93.86179845406568,0.3322087741402906,5.579343411214947,8.259812409479572,4.006190235442217,0.25049212598425197,corduroy
104.29645904213679,7.136148518390776,0.30926054461885866,0.24173623997538757,0.4819811269557036,0.05882055449060614,104.29645904213683,0.3092605446188589,5.245067395278516,7.926115237456948,4.2011611968397835,0.2591043307086614,corduroy
27.77684435837623,3.351102827205655,0.4073926516285291,0.25542808182186305,0.746452730081991,0.06550883112090926,27.776844358376223,0.40739265162852917,4.8968191376480785,7.189416649660576,3.309242633251542,0.2746678149606299,corduroy
35.21673196862018,4.0795792177521895,0.2875985321666791,0.08993013123523579,0.8178502029564767,0.008223424163391174,35.21673196862019,0.28759853216667924,5.850179149797401,8.822503695429841,3.5308923473710148,0.09258120078740158,corduroy
92.00577763655511,6.265613617164725,0.38912298441505305,0.3265813703096027,0.5602693176810913,0.1069711227346874,92.00577763655528,0.38912298441505355,4.887059084422148,7.162448427876633,3.9180087642494232,0.34288877952755903,corduroy
18.367495442022133,3.2497388002588514,0.2866661579532738,0.07842015029371242,0.7165223611657269,0.0062120148445718205,18.367495442022136,0.2866661579532739,5.302098903176462,8.14132734223023,3.225653039583519,0.061823326771653545,corduroy
38.999678858732736,4.5321838768677605,0.2413702879662944,0.06612258598542524,0.7418498026068864,0.004437643495865989,38.99967885873272,0.24137028796629445,5.7800244134956085,8.977210167407984,3.664696447937423,0.05345718503937008,corduroy
80.4323166927583,6.022954819347143,0.3643211607715515,0.29999909889444426,0.41298396480192845,0.09041171006180376,80.43231669275839,0.36432116077155186,4.762670081786774,7.029415583401738,3.932258844775885,0.3233267716535433,corduroy
25.313297767220547,3.589643944912889,0.33514250247054606,0.17535502742340148,0.7132483680143001,0.031054602898715193,25.313297767220533,0.3351425024705461,5.081901639416592,7.640914510890934,3.3915736079521865,0.19592765748031496,corduroy
110.40859413750073,6.8060054870109745,0.2956819861372522,0.17863919920928292,0.7076663182024304,0.032224941616332284,110.40859413750078,0.29568198613725244,5.710595790406929,8.566823005961638,4.130053658240017,0.20109498031496062,corduroy
103.57542157662422,7.179184354462457,0.3018051255837795,0.23561967125498634,0.4290577634379616,0.055950160575499605,103.57542157662441,0.30180512558377964,5.1956264512937835,7.836640206488648,4.2117367675295005,0.2556594488188976,corduroy
35.41147447919895,3.9611825942401886,0.32690564564340285,0.1564308127908863,0.7328162340695825,0.02476173097332228,35.41147447919896,0.326905645643403,5.387753317620842,8.098428186564654,3.513531300910258,0.17587352362204725,corduroy
35.69882386249145,4.112655557342366,0.2984164423293786,0.11239736467982361,0.7728667677764991,0.01286914037951279,35.69882386249148,0.2984164423293786,5.663398859835594,8.551995339513407,3.537435155776601,0.12567667322834647,corduroy
105.07180667876946,6.824600317169375,0.36888407255836186,0.31150937930050576,0.4800415059410881,0.09743876164670966,105.07180667876962,0.3688840725583624,4.920869034698566,7.190714738998784,4.033267238215155,0.328494094488189,corduroy
18.813738307164115,3.261052733042968,0.2986890457805669,0.0978951814518339,0.6986594570359825,0.009733118662457598,18.813738307164115,0.2986890457805669,5.187796039581638,7.921541999403578,3.2354122232198352,0.09627214566929133,corduroy
56.966348342852946,5.36723581650289,0.22976194783361506,0.06972687948649627,0.700270762220156,0.0049656343058455754,56.96634834285294,0.22976194783361523,5.860146523858727,9.136195349574653,3.8733625907907876,0.0654527559055118,corduroy
68.27108876092743,5.353895012477524,0.41350060044995446,0.3523017266434082,0.3477610927798876,0.12452021050236273,68.27108876092751,0.41350060044995496,4.382095293339681,6.325848373644704,3.7186696458080926,0.374753937007874,corduroy
32.089690929381874,4.085253803320104,0.3000601344363163,0.14660369838934545,0.6675927240061402,0.02184511025264864,32.08969092938186,0.30006013443631624,5.225032008783309,7.958172717486381,3.5332385919738947,0.16830708661417323,corduroy
138.4235728588643,7.673130139228999,0.28690049407034,0.17926489147253594,0.6252061656964952,0.03254518763184264,138.42357285886447,0.28690049407034046,5.6943905113460005,8.58485905289831,4.232700157058549,0.20724655511811024,corduroy
90.88259404643804,6.527206187224871,0.34732457651187615,0.28564928094461184,0.3784648574504172,0.08203157920689999,90.88259404643809,0.3473245765118763,4.848660311488375,7.142442866692262,4.029016856334447,0.30222687007874016,corduroy
43.876693378386726,4.4072131816138596,0.3427175105545528,0.20615099354919098,0.6727273803781677,0.04299578544856005,43.87669337838676,0.3427175105545529,5.157084601705501,7.70424970494535,3.602654183970205,0.23646653543307086,corduroy
48.91169281166691,4.818931423019099,0.296198991661866,0.14026191317213627,0.7107834762010298,0.020092051156342862,48.911692811666875,0.2961989916618659,5.5527052992726045,8.421037037091946,3.7059717004084836,0.1657234251968504,corduroy
108.12506272668784,6.917060060682617,0.37471349898227724,0.32020690748997716,0.4114835710753183,0.1029932474177549,108.12506272668796,0.37471349898227757,4.807320175520247,6.979552982210493,4.0192098719345095,0.3420890748031496,corduroy
18.182654787184575,3.098239438666378,0.3448955559104423,0.16246345756090255,0.6603603939223296,0.02677383792500483,18.182654787184575,0.34489555591044224,4.850167401937053,7.279105336213542,3.185175615622843,0.18171751968503938,corduroy
48.247358334560445,5.121172824376904,0.22202945083328068,0.06163354846118353,0.6518380982429001,0.003896489402453133,48.24735833456042,0.22202945083328066,5.739941756846163,9.026817348622865,3.7745606265622818,0.05075049212598425,corduroy
59.524678955607875,4.966820003952505,0.4273736223496728,0.3652262538023895,0.3181902052911982,0.13376910136958756,59.524678955607904,0.4273736223496732,4.232945459004579,6.056641292055978,3.616071445982354,0.382566437007874,corduroy
30.314276206677434,4.181530550561102,0.25380322236386366,0.09164455708689913,0.6241808359110993,0.008723704033161674,30.314276206677413,0.25380322236386355,5.298301303214444,8.220143472877863,3.486724106511247,0.10426919291338582,corduroy
156.21660348789442,8.342914693641864,0.2561672202187937,0.14753389239505127,0.5529462600765698,0.022235857522052208,156.21660348789447,0.25616722021879385,5.779107991251514,8.813880663911482,4.325664858310952,0.17679625984251968,corduroy
72.47204896362912,5.574036261353774,0.40770493939155683,0.35056691503189963,0.3054304942638751,0.12340194612587659,72.47204896362918,0.4077049393915571,4.374722511415543,6.2603906043311515,3.753638345143247,0.36983267716535434,corduroy
46.2603609230656,4.2171771101354665,0.4387144066168107,0.33868906826541706,0.5637936924741997,0.11588298512061236,46.2603609230656,0.43871440661681094,4.445287664132695,6.4284083843876285,3.390468856048048,0.3937623031496063,corduroy
60.80375313875622,5.272235278845553,0.3103395547070147,0.1723522463292192,0.6332782282760852,0.030418499124815864,60.80375313875628,0.31033955470701485,5.365964488847135,8.091920735312131,3.781132602989084,0.20983021653543307,corduroy
99.37116519545533,6.619958857105211,0.38347429239095565,0.3311995769995467,0.34066317650971356,0.11024881384572412,99.37116519545539,0.3834742923909559,4.632884035092763,6.64526905836121,3.941310686667632,0.3562992125984252,corduroy
23.4910080445161,3.736804872047246,0.2607654792629947,0.0821316104294165,0.629085177605359,0.006968918136592984,23.49100804451609,0.26076547926299454,5.215024172734117,8.084142510382591,3.315280342056609,0.0797244094488189,corduroy
73.65877977459081,5.980330581754915,0.2652282967413774,0.12792092143133893,0.5579854181370608,0.016850725882416664,73.65877977459081,0.2652282967413774,5.501214790504139,8.47195881057559,3.9460397285956677,0.15397391732283464,corduroy
56.77154201574025,5.046806824082398,0.39250561322745137,0.32519465426146854,0.3131985628776869,0.10626806119776366,56.77154201574028,0.39250561322745153,4.373346099577132,6.327998910746782,3.68998392751453,0.34953248031496065,corduroy
34.583856863026206,4.249576171027339,0.30794519525620995,0.16782841783246613,0.5323192152763668,0.029214950851368906,34.58385686302623,0.30794519525621,4.934472952574032,7.4836853922715125,3.5052797281288717,0.2140132874015748,corduroy
185.09532143673593,8.643273931079069,0.3590245195027463,0.2757900286597724,0.4215455852585069,0.07772975734926048,185.09532143673664,0.35902451950274694,5.1525443799294015,7.578821182477779,4.1151353412502205,0.343134842519685,corduroy
72.53469064359997,5.762440591287428,0.37944256204377574,0.32111835804754674,0.20798555256053733,0.10398545176706137,72.53469064360004,0.37944256204377613,4.399201280789297,6.291203216388125,3.8270912824516916,0.35531496062992124,corduroy
51.92169820277142,4.669815191192884,0.4050743055111859,0.2979066923307927,0.5022403478745349,0.09063381817703839,51.9216982027714,0.40507430551118595,4.60294828342541,6.686499163164472,3.491225807668389,0.3687869094488189,corduroy
68.89688822346392,5.740778208118913,0.30483851898722714,0.17932604585837503,0.5456979433943219,0.03334439613880272,68.89688822346395,0.30483851898722725,5.269725470868691,7.930075844764108,3.8200611222372944,0.2312376968503937,corduroy
117.86175037975073,7.616366240544981,0.3138536203378737,0.258760175952692,0.2682543232148965,0.06761420294461841,117.86175037975076,0.31385362033787395,4.954443779220514,7.261784377447896,4.215169781149668,0.28820127952755903,corduroy
26.526061970092698,3.9258147930358382,0.26828766228443474,0.10107215664103847,0.560537246683366,0.0106828225009483,26.52606197009269,0.2682876622844346,5.091488385871678,7.8761616111261405,3.366812854542583,0.1172490157480315,corduroy
110.22710875499885,7.113543660681065,0.29606165551247354,0.17922686170806412,0.44984611405328245,0.03320884666370963,110.22710875499877,0.29606165551247365,5.364672567509802,8.140918839066053,4.060873415825692,0.22853100393700787,corduroy
60.51665236142968,5.186929889484779,0.3978298355159835,0.33436848248592616,0.2584413299600274,0.11259030797694239,60.51665236142972,0.3978298355159837,4.304373686057354,6.183673965972594,3.6928795939383443,0.3714320866141732,corduroy
42.001615514949805,4.985444138857028,0.22552152185800456,0.086006694802549,0.47534210989716463,0.007927538252713076,42.00161551494978,0.22552152185800453,5.253886895996497,8.255927144570661,3.611348710043913,0.10556102362204725,corduroy
263.92964644913576,10.596925689945065,0.3479771466379953,0.2753054299506353,0.32501883422594746,0.07873348100998638,263.9296464491367,0.34797714663799606,5.2400683783041,7.596874612888623,4.248991161872503,0.36669537401574803,corduroy
65.48230889430522,5.343287420949841,0.4043053243726514,0.34567029121469095,0.25379605460107824,0.12050339544454819,65.48230889430528,0.40430532437265154,4.290077588897922,6.109473846949326,3.7036434578553044,0.39259350393700787,corduroy
58.984533269847766,5.091734632688013,0.39743304217834174,0.30382607714440707,0.388916300879124,0.09560062188927436,58.98453326984779,0.39743304217834174,4.507350689553366,6.483956206099737,3.5174402416430453,0.39960629921259844,corduroy
80.98885051285727,6.049311532216807,0.36942586212765977,0.2771348057584974,0.4045468019480353,0.07996091227305545,80.98885051285728,0.3694258621276599,4.783851825814834,6.940248056115616,3.7168759444592436,0.37093996062992124,corduroy
102.1148851399264,6.824297097812943,0.36533723983348027,0.31307757666094294,0.20850564203784472,0.09932851666317036,102.11488513992653,0.3653372398334805,4.5758979306809575,6.541843074429023,3.9734066826716754,0.367310531496063,corduroy
31.121014433435114,4.137205426754605,0.30011435444729756,0.15271325725380208,0.4337380670173477,0.024801109232857502,31.121014433435114,0.3001143544472978,4.806817189851523,7.314882762016694,3.4013981520407954,0.20656988188976377,corduroy
121.63592279918919,7.5408388277713945,0.3112733358006884,0.2052595500547788,0.3343120064815411,0.04452654988147606,121.63592279918934,0.3112733358006886,5.1848937278956555,7.746578932251969,4.0305596929429965,0.28383366141732286,corduroy
54.72900593457438,4.865341300995104,0.4126605779879228,0.3472405123159693,0.2181477214586481,0.12154399101572502,54.729005934574374,0.41266057798792305,4.160692570984041,5.918528165207345,3.6134513578008747,0.39265501968503935,corduroy
49.34188406267435,5.055587833831917,0.31983475230692543,0.20884418621815415,0.313763190627965,0.046904262378005004,49.34188406267438,0.31983475230692543,4.712902298841745,7.008646978035711,3.575240720073518,0.3019192913385827,corduroy
289.2172253055435,11.323844448470073,0.3590445221767124,0.29843876547264886,0.19017406923539376,0.09501693968469119,289.2172253055444,0.35904452217671323,5.050147339238928,7.184574113555217,4.210233309356759,0.4307332677165354,corduroy
62.0612345677816,5.327878452631905,0.3837891219298308,0.3184477574169209,0.18626101554470978,0.10355118796954588,62.06123456778163,0.383789121929831,4.293030331023231,6.137917316848741,3.6988987944039833,0.3933932086614173,corduroy
61.12574836087171,5.284211959048918,0.3951845186792965,0.3047137184480488,0.26221583799290216,0.09876388527942848,61.12574836087172,0.3951845186792965,4.3790866539600986,6.211855152348101,3.480216151723721,0.43485482283464566,corduroy
93.22000271734919,6.600014797685838,0.36792598847340885,0.2828451772535348,0.2489330957106966,0.08618357614903344,93.22000271734917,0.36792598847340907,4.645926103050882,6.606037271133503,3.712166236803598,0.41633858267716534,corduroy
96.09724779996426,6.557613494133235,0.38428934575726414,0.3334907109700814,0.15997866173308134,0.11392881321605192,96.09724779996435,0.38428934575726453,4.404232336703214,6.228811633277452,3.8619528088083475,0.41941437007874016,corduroy
0.10272899842674686,0.046292416803583605,0.9820473092767319,0.9714439366297923,0.3512666058829177,0.9437078581580843,0.10272899842674685,0.9820473092767319,0.24921178589262724,0.28767300179121347,0.22439787237794379,0.9750861220472441,cotton
10.947380058822615,2.0375558485491974,0.5534327967130598,0.4402841486991413,0.4856463498402186,0.19728641757778173,10.947380058822619,0.5534327967130598,3.3563325013021847,4.60002193147515,2.550460042658159,0.5385088582677166,cotton
13.017588902365308,2.2737019692789384,0.5135647050743101,0.3901331263133688,0.6025355113614702,0.1526238798281398,13.017588902365306,0.5135647050743102,3.761274723868713,5.352261017694894,2.8062663573460647,0.4092642716535433,cotton
22.109759594519183,3.3152597320819632,0.3818108660204904,0.2672634657773819,0.36046344513665024,0.07254705509443653,22.10975959451919,0.3818108660204905,4.151250509170014,6.117571443530286,3.2654915312386503,0.31182332677165353,cotton
90.18038245842118,7.332896950950156,0.18869252744753595,0.0993140646686153,0.35043397827953604,0.01082302631330174,90.18038245842118,0.18869252744753598,5.530164592004063,8.806767265418758,4.182580400741982,0.14554625984251968,cotton
50.805679138702,5.120435119776488,0.3084652814829457,0.2189754154972126,0.34904577747727616,0.04872156224300058,50.805679138702025,0.30846528148294583,4.758784220331654,7.136228367102259,3.832455602532634,0.25239911417322836,cotton
1.0497405682311367,0.30499120373240746,0.9058479700087796,0.8652762048204518,0.38489591626482267,0.7489059929943722,1.0497405682311365,0.9058479700087796,0.9661507623424557,1.1802501027014014,0.8483992877686715,0.8892101377952756,cotton
4.204716417245335,1.2008271204042407,0.6414577195392791,0.49468477383036047,0.4470210418583349,0.2477958115721237,4.204716417245335,0.6414577195392791,2.74906450907497,3.6900361691997583,2.0675695900972952,0.5853223425196851,cotton
14.92537715934807,2.459176672259594,0.4922220573638745,0.36375004613946366,0.6257719414336682,0.13276913954597433,14.925377159348068,0.49222205736387453,3.950113697463281,5.659978433092116,2.9103289657381213,0.38779527559055116,cotton
7.696027681117862,1.2751461362297725,0.7332836436534313,0.6749929572475148,0.14028836594391098,0.45628098285732144,7.6960276811178625,0.7332836436534316,2.0786061883276084,2.6472582520797405,1.9312627782006335,0.7172736220472441,cotton
82.57396384714644,6.456400713582667,0.3249889759965141,0.26209839681947245,0.2740025393511091,0.07428329839816766,82.57396384714644,0.3249889759965142,4.74911698600352,6.855615777082689,3.895074048959574,0.38945620078740156,cotton
56.78558601257826,4.721791759989771,0.4578415497433081,0.40041467157343513,0.27907401901123174,0.16095085810099583,56.78558601257828,0.45784154974330843,4.013163745484881,5.632162600632155,3.501742435334765,0.4219365157480315,cotton
11.330696915300077,1.6799307778303056,0.6879176774634393,0.6351511945599774,0.06974841784472015,0.40432435093670205,11.33069691530008,0.6879176774634393,2.3160450826398606,2.94504824530523,2.181433556501703,0.6837475393700787,cotton
147.6993629729445,9.002726189046113,0.2577578096294398,0.21024678816540338,0.14479438792382335,0.04973566089107907,147.6993629729447,0.2577578096294401,5.119732252081566,7.540838051028505,4.334228576258392,0.33692175196850394,cotton
69.21483297263467,5.728264960436173,0.3511589849065123,0.2862058595536816,0.29111365591841404,0.08262020188599527,69.2148329726347,0.3511589849065126,4.602123784218567,6.711587150977624,3.89498475427315,0.3153912401574803,cotton
11.767543128836259,1.766352048329097,0.6649008904053159,0.6047331940809354,0.13849109928655007,0.3671804394357503,11.767543128836257,0.6649008904053159,2.478947046825865,3.1989455519573413,2.283223015819505,0.6686761811023622,cotton
39.36852679955359,4.480870297678096,0.34521015388474774,0.26557815677976176,0.18900636710091986,0.07647831858011626,39.3685267995536,0.3452101538847478,4.255279559197185,6.134940063836964,3.5185829456506235,0.3953617125984252,cotton
67.57809194134006,5.438267130440512,0.3918668830986209,0.3293063770566754,0.30606998596134416,0.10918242504654327,67.57809194134013,0.39186688309862105,4.4196089280466815,6.347642602282878,3.776717555779228,0.36202017716535434,cotton
11.433622449276147,1.8379439063565628,0.628310857339886,0.5601096138214114,0.05461007709239288,0.3162760038495484,11.43362244927615,0.6283108573398861,2.5825739862492387,3.3261731237330774,2.4134383550340583,0.6451771653543307,cotton
98.18831241959353,6.9644653312744005,0.34878450331619415,0.3040835647861562,0.05847998923127954,0.10221941515756529,98.18831241959359,0.34878450331619454,4.398766434015629,6.116560375895793,3.8794838891600687,0.47373277559055116,cotton
55.765718363467954,4.563159114599479,0.4834614282189117,0.4339483638428593,0.17273902247876524,0.18891222549749784,55.765718363467975,0.483461428218912,3.7707325669074967,5.127198722979153,3.4036016348644824,0.4621678149606299,cotton
36.345686898405035,4.124798378503007,0.40746131941401503,0.3493459945566523,-0.013181601565765484,0.12728373382883762,36.34568689840505,0.4074613194140151,3.728221260178353,5.101464184006568,3.4048764825380617,0.47102608267716534,cotton
160.42349705402523,9.41706260365644,0.26105619851036715,0.2251996638612737,-0.009695355969530722,0.0595233801239031,160.42349705402535,0.2610561985103674,4.9009418014560024,7.0407691311372025,4.341091481448006,0.38607283464566927,cotton
62.92772057028487,5.370019767383283,0.3740240223080291,0.3141349319865343,0.18709508227121058,0.09941153593278237,62.92772057028489,0.3740240223080294,4.331870378773391,6.170466528980456,3.7914328283572165,0.3340920275590551,cotton
18.476194495357735,2.5006675911789324,0.5712900452110794,0.5129942464232888,0.03862278692787036,0.2672890118255589,18.476194495357742,0.5712900452110796,2.906727255995868,3.7472736785846017,2.7124257446918607,0.6219242125984252,cotton
31.420588739614963,3.72439685504371,0.43401223770258934,0.37054493842340047,0.03780189569795775,0.14626467402398685,31.42058873961498,0.4340122377025894,3.6099018097679245,4.876998490474304,3.2437618974557596,0.5323572834645669,cotton
61.35758535188939,4.874673167315085,0.4631869849879297,0.4131714653646836,0.15999611664950725,0.1718675488880756,61.357585351889455,0.4631869849879301,3.8826384921070387,5.295505300130768,3.5047059397677813,0.4641363188976378,cotton
9.560744621489244,1.7851550390600788,0.5988660394455703,0.5222131526868109,-0.0041689899559308324,0.27735945697374026,9.560744621489244,0.5988660394455703,2.5982854104391526,3.3062109276799214,2.4394014700496953,0.6377952755905512,cotton
130.64672087156663,8.620246818618625,0.2535632730297115,0.2195088826648789,-0.10874420400154519,0.06167322793022535,130.64672087156674,0.25356327302971166,4.642846586291014,6.535003369807283,4.134133376180143,0.4189837598425197,cotton
56.31070405500182,4.830846587474424,0.43373937570401583,0.38091814029988963,0.09473771244785366,0.14575640314424412,56.31070405500186,0.43373937570401616,3.9299343659274673,5.3696772521064045,3.5744207948561257,0.41326279527559057,cotton
35.54020502181628,4.266189176909602,0.35844990845046804,0.30360806923594597,-0.11628713217545657,0.09894774626061269,35.54020502181629,0.35844990845046826,3.7571072607670337,5.145160382880333,3.4887730373769226,0.4416830708661417,cotton
159.56869674286216,9.789352277923292,0.2021576814239034,0.17079512541994918,-0.11205297121771592,0.03736290551927321,159.56869674286224,0.2021576814239035,4.967756088682814,7.392070437198592,4.406911132969661,0.3251107283464567,cotton
50.37751936050745,4.6105180061922635,0.4258695572070924,0.36585948431044185,0.15408431981108195,0.1343331483977095,50.37751936050747,0.4258695572070927,3.989036904486895,5.52913122143204,3.5581518306912794,0.3827509842519685,cotton
12.348809912463572,2.024567185853122,0.5952979696547025,0.530248003887424,-0.00852274359623044,0.2849738575587097,12.348809912463576,0.5952979696547025,2.671012389984697,3.3743500639688264,2.5266155925303533,0.6344734251968503,cotton
45.69530474998449,5.1506905748186504,0.26174259816292134,0.21675666216545472,-0.12017454102340155,0.056236616842922714,45.6953047499845,0.26174259816292134,4.115626738351157,5.929209321036146,3.6232090845444453,0.3785679133858268,cotton
67.43160768743408,5.593124549530347,0.36685849048584773,0.3106872113187035,0.0953879591497002,0.09750190563715044,67.43160768743411,0.36685849048584795,4.286829915160547,6.021617904041794,3.83989801403579,0.35100885826771655,cotton
5.033708450229399,1.0958374182373363,0.7224484503684668,0.6504591057833858,0.04630627179972464,0.42550409565989344,5.033708450229401,0.7224484503684668,2.0039428193040143,2.458596775289978,1.8972992016621626,0.7335752952755905,cotton
85.74199435508243,7.168242543516331,0.23168284515625273,0.21692060687414613,-0.1956898645373968,0.06085788681872887,85.74199435508247,0.23168284515625287,4.3312158376132155,6.043791985001457,3.927624345854233,0.4182455708661417,cotton
20.417681878332505,2.4441067671197847,0.6092739850471416,0.5533526181274746,0.10931510082481569,0.3065935229840544,20.41768187833251,0.6092739850471418,2.8462792378028974,3.6912592676585407,2.643953022973312,0.5821235236220472,cotton
6.842722275288302,1.333877327910906,0.6907346575164428,0.6252557899125253,-0.03651597692626603,0.3919924979638879,6.842722275288301,0.6907346575164428,2.1504803514581416,2.648863486661689,2.0789927338485614,0.6778420275590551,cotton
116.07332895134537,8.450215353555702,0.18398244590859383,0.14765195553527505,-0.06565128347268553,0.027667707688621125,116.07332895134539,0.18398244590859383,4.957820392612054,7.567727502617967,4.2671463993655,0.2767593503937008,cotton
27.947207499883735,2.958370186271623,0.5756878853621672,0.5178299952275623,0.17936488879366153,0.2682941017211489,27.947207499883753,0.5756878853621674,3.147474111652717,4.1795037313818035,2.861645446849156,0.5262672244094488,cotton
8.487692127728007,1.6100249114560727,0.6368975552730753,0.5633705233327938,0.01198151917024283,0.3202779287465356,8.487692127728005,0.6368975552730755,2.445247184539425,3.085554460444529,2.3071292988137517,0.6535433070866141,cotton
27.930274321486138,4.000587063674128,0.28854514233266093,0.22256921778810465,-0.14168331053230007,0.05625057792257812,27.93027432148614,0.2885451423326609,3.800638383766775,5.5612965742614335,3.3554378272351437,0.35586860236220474,cotton
43.56435067948259,4.366766456189161,0.41225938474741297,0.3490160107617859,0.07487712568466821,0.12259610179317373,43.56435067948261,0.4122593847474133,3.9161347622463722,5.4218360546314655,3.534133057277116,0.3861958661417323,cotton
0.6321900768801538,0.1955919849339699,0.934293922148113,0.90548073095774,0.105654115561491,0.8199735129029186,0.6321900768801538,0.9342939221481129,0.6631332236047885,0.7746767644083423,0.639132380436332,0.9204601377952756,cotton
31.199515309186864,3.9594651181489864,0.36074054951151524,0.2988871746220968,-0.08652380060819723,0.10171771186569419,31.19951530918687,0.36074054951151535,3.6934967563731136,4.965991156922874,3.352845986492873,0.48843503937007876,cotton
13.89424074551274,1.9492581055474618,0.6400415046647869,0.5747343663990645,0.1517835723613582,0.3304582084751742,13.894240745512743,0.6400415046647872,2.656202968571464,3.470918548156183,2.4385749460489894,0.586183562992126,cotton
0.9968468335374171,0.3045415817394135,0.9020423279885659,0.8628348713764307,0.05508149125606469,0.7445338153168762,0.9968468335374171,0.9020423279885659,0.9031467828322702,1.073590184954237,0.8748327074365161,0.8740772637795275,cotton
46.37781470875439,4.962819300638599,0.2872542089777682,0.19601331130589855,0.17159170856852582,0.0420886141115382,46.37781470875443,0.28725420897776827,4.56323404707747,6.851978788936216,3.7463401785805246,0.2950295275590551,cotton
14.742281105655964,2.1201721036254573,0.6018536176153331,0.5260297071697255,0.19160892655083436,0.2767706314920692,14.74228110565596,0.6018536176153331,2.8956149713859265,3.8874237454274443,2.5987174572282647,0.5298966535433071,cotton
1.7084308543617088,0.4815120958366917,0.8555448821686114,0.8030544868089542,0.14566282210007736,0.6451630517948219,1.7084308543617088,0.8555448821686114,1.254956602351657,1.5427589147661793,1.1683237238836781,0.8301550196850394,cotton
5.631271578949408,1.49906188484252,0.5646207996833643,0.4304021220207863,0.007696684408500888,0.1889635925677489,5.631271578949407,0.5646207996833644,2.660223772393227,3.610925468479765,2.3634336848989133,0.5256520669291339,cotton
17.38843271436543,2.291018167973836,0.6026907797743493,0.5347741660677997,0.17908411742110011,0.2860468256887019,17.38843271436543,0.6026907797743495,2.916670270361143,3.9024441564122476,2.6344664281302275,0.5411540354330708,cotton
1.6380171197842397,0.602630549011098,0.7880648147050433,0.6859537792077139,0.16330493670700671,0.47135966229685444,1.6380171197842395,0.7880648147050435,1.6674451823509282,2.1367858125335424,1.475902742952011,0.7316683070866141,cotton
12.194227740017979,2.146746785681071,0.5249223261873959,0.4066652446921377,0.1524472635944056,0.17032917479038828,12.19422774001798,0.5249223261873959,3.169327718105539,4.349860817691551,2.7090175369758036,0.5228838582677166,cotton
11.075635186426625,1.7338626513190527,0.6542776137866351,0.5801767666813987,0.24783399350232027,0.3366707557897808,11.075635186426624,0.6542776137866352,2.6311769170017705,3.5130655125665715,2.3352402093421674,0.5831692913385826,cotton
3.2547138258339015,1.007275932520615,0.6776493611298898,0.5333876579792445,0.3060452995382096,0.2849149160566139,3.254713825833902,0.6776493611298899,2.4240515185880227,3.2991966568858984,1.97450766243314,0.5586860236220472,cotton
29.235621057179614,3.6844653845557684,0.3629359811341881,0.22845933925165163,0.4365247749550697,0.053758554314366644,29.235621057179618,0.36293598113418823,4.525605461292475,6.777368244709182,3.4209572642127473,0.28986220472440943,cotton
10.063093966031683,1.6733171083529668,0.6493207458818866,0.56906016628815,0.262650025611022,0.32387302286277836,10.063093966031683,0.6493207458818867,2.650323569039797,3.5533284797606783,2.3339615626330685,0.5739419291338582,cotton
2.314135011082522,0.7416120613491228,0.7584051354740498,0.642350019788044,0.3849168689939527,0.412906808711406,2.314135011082522,0.7584051354740498,2.0319069764781066,2.6894332064540594,1.646208692882428,0.6674458661417323,cotton
2.497390424468349,0.9020843666687333,0.6841637072635467,0.5272537279442563,0.13576296647752853,0.2791316622766477,2.4973904244683487,0.6841637072635467,2.216115578059424,3.0005757177488057,1.877237469042016,0.5731422244094488,cotton
15.622130435667124,2.434393091442433,0.519836789204689,0.4169261589521056,0.30236501398955695,0.17389386352183359,15.62213043566712,0.5198367892046891,3.4165916141953963,4.8234898111313536,2.871005015096408,0.4171998031496063,cotton
0.5815961592860686,0.30348782181939365,0.8732850994055793,0.7817619751426379,0.17179286563915785,0.6112678254597856,0.5815961592860686,0.8732850994055793,1.15196355823892,1.4491042422858278,1.0060404959420215,0.7960752952755905,cotton
3.5161486104222215,0.9007692859135719,0.7384699725684579,0.627151659091616,0.34360249732208736,0.39438045741327543,3.5161486104222206,0.7384699725684579,2.1589296552859416,2.8557826277520477,1.7842191940347898,0.6799950787401575,cotton
11.406437695687893,2.099294409526319,0.529412960839708,0.40600757641125695,0.33452641337156275,0.1650059223439097,11.406437695687892,0.5294129608397081,3.3560044865607734,4.784160656820046,2.7359339069031514,0.4154773622047244,cotton
1.7958211189859878,0.6814449371086241,0.7552252498752671,0.599187511768727,0.49349478761684357,0.35922102959780144,1.7958211189859878,0.7552252498752671,2.1854375038043377,2.914041153201641,1.6102098454686105,0.616449311023622,cotton
14.696415060798873,2.369194632920516,0.5007957113208046,0.3517902083893446,0.5848956560541713,0.12458328934402796,14.696415060798872,0.5007957113208047,3.946009440888623,5.697417883509068,2.8634450319020495,0.39616141732283466,cotton
9.944183298522852,1.9378091529620556,0.5443681071056101,0.4160857065744693,0.34433196200105065,0.1732780799236124,9.944183298522848,0.5443681071056102,3.2645840398918917,4.623105344160342,2.651969741718759,0.4250123031496063,cotton
0.9729677037479074,0.4087258877642755,0.8465458470045285,0.7358341304505078,0.5938509482703285,0.5415428280940918,0.9729677037479075,0.8465458470045285,1.6223137052556937,2.0786880828694665,1.1777021030149688,0.7496924212598425,cotton
0.0011425218162936326,0.0011425218162936326,0.9994287390918533,0.9985030737217344,0.3795463545202183,0.997008401464851,0.0011425218162936326,0.9994287390918533,0.01735299962329316,0.018495521439586795,0.012798650378266475,0.9986979973959947,cotton
12.306032854253205,2.3185922387469775,0.4701701111730242,0.3208053765809307,0.41476717198521396,0.10301778929947936,12.30603285425321,0.47017011117302415,3.7553703975765598,5.509803656335732,2.8897109135981047,0.32381889763779526,cotton
0.06381253778132556,0.06232937856500713,0.9689836266391283,0.8599453225390871,0.9154892135289396,0.7395061422225504,0.06381253778132556,0.9689836266391282,0.9501581966612053,1.0176987525638825,0.33927076994540395,0.858636811023622,cotton
2.5264377247504495,0.788712053986608,0.7411399719173781,0.5896462216310567,0.5390277633451221,0.3481711145614138,2.5264377247504495,0.7411399719173781,2.349287276226568,3.142336102957546,1.717025300276791,0.6225393700787402,cotton
6.78119078503782,1.510134477300205,0.6122716393103873,0.48245951158902345,0.480512794449654,0.23291237759912362,6.78119078503782,0.6122716393103873,3.0244407442997043,4.229729062487599,2.350325497989511,0.4961860236220472,cotton
0.12832499883749765,0.1247076791028582,0.9380078924220348,0.7138263487776233,0.9439558296131876,0.5095498751876844,0.12832499883749768,0.9380078924220349,1.7385331600710632,1.8755021270872767,0.5505521479757962,0.7079232283464567,cotton
11.671192635354029,2.1259405370373248,0.510384949914531,0.33812813913118933,0.6439145951860451,0.11481068567828681,11.671192635354021,0.5103849499145309,3.9785896723487073,5.750048451092421,2.7588319917920097,0.36946358267716534,cotton
5.019379882509766,1.286867065921632,0.635753468894957,0.4918299587097682,0.5044960378133684,0.2420512988254349,5.0193798825097655,0.6357534688949569,2.8976730581503864,4.0208367108866,2.2048371862504377,0.5039985236220472,cotton
0.08427814902504804,0.08223698869272739,0.9590856216868683,0.8052053430060735,0.9528583812120315,0.6483564424035919,0.08427814902504804,0.9590856216868684,1.3133539552701528,1.4025583107117436,0.41391756814994696,0.8031496062992126,cotton
0.010733408185566371,0.010516649939549878,0.9947633508548267,0.981789605073871,0.6367105168765568,0.9639109000374098,0.010733408185566371,0.9947633508548267,0.15403557880895322,0.16519477075627337,0.08426192137685933,0.9820199640399281,cotton
0.2745635530333561,0.21110351986328973,0.900755899219307,0.7151880090030174,0.9202695482004766,0.5115068722789601,0.2745635530333561,0.900755899219307,1.824169243057797,2.1108581939049738,0.8041833740303342,0.7165969488188977,cotton
8.369609258749769,1.4637014703716908,0.6725091775082506,0.5616786932480935,0.8823638554041272,0.31556725000809827,8.369609258749769,0.6725091775082508,3.3154771888082544,4.5141756306557195,2.2003999480465852,0.57154281496063,cracker
9.713639349153699,1.4569680389360786,0.7071790374031112,0.6219468973031832,0.9085111813757871,0.38690263949036807,9.713639349153699,0.7071790374031117,3.074558716732046,4.149106575201802,2.0856257856163403,0.6318897637795275,cracker
18.18778529744556,2.0585276326802586,0.6690473070673219,0.5837639671719924,0.947762596867696,0.34083586757369033,18.187785297445593,0.6690473070673235,3.662343699461158,4.916912312880909,2.3831328346744627,0.5933193897637795,cracker
81.55052392526656,6.160837645894031,0.2881465184312544,0.17433345627534821,0.8099901556595832,0.030479646072166605,81.5505239252666,0.2881465184312548,6.087601773543467,9.253981243897742,4.119740063923999,0.18153297244094488,cracker
87.75084632591143,6.230397667826578,0.307501230961725,0.19266912873566158,0.8550527055229086,0.03719133017229746,87.7508463259114,0.3075012309617254,6.191924754227465,9.248480803028212,4.117567590199117,0.2002952755905512,cracker
101.67763495683252,6.648264819967123,0.2863100988252828,0.15487942153908485,0.8559226969013595,0.024064363474737584,101.67763495683242,0.2863100988252827,6.389100630514569,9.578934042286964,4.227283446423687,0.1609251968503937,cracker
10.744456801413598,1.5881038715202425,0.6824328047477298,0.5842808209235171,0.9534712272841273,0.34143435500012176,10.744456801413602,0.6824328047477308,3.542452537550936,4.748712275924427,2.2116885725997557,0.5933193897637795,cracker
13.481177149854302,2.1497847917570843,0.5493672234112319,0.4047315251741121,0.9262086328490164,0.16387124339495066,13.4811771498543,0.5493672234112322,4.509520814558438,6.277497699131841,2.729429588557569,0.4107406496062992,cracker
9.25752756583637,1.2683238218038917,0.7492521907758871,0.6597638756422928,0.9690516359147212,0.43530574786001763,9.257527565836382,0.7492521907758882,3.1392053404565443,4.099029646558711,1.8938090556368299,0.664185531496063,cracker
40.89430468314052,3.780819268669781,0.49279874372280164,0.4084360526987143,0.818422576150662,0.16698782978668758,40.89430468314062,0.49279874372280263,4.53201490742822,6.487943131253041,3.2737672536329443,0.4218134842519685,cracker
60.56759345549928,4.94431516988033,0.3999412771120166,0.30708442188800156,0.8290432146913332,0.0945096885151063,60.567593455499406,0.3999412771120174,5.294164540325495,7.750324086873263,3.7081109024382055,0.3265871062992126,cracker
70.07400296050578,5.073680608298703,0.4258763315160526,0.32440348400291785,0.8682014991509798,0.1053560255406513,70.07400296050592,0.42587633151605364,5.406508852920016,7.747531805098172,3.7047164083995803,0.33624507874015747,cracker
75.13930761845884,5.558512980307196,0.38696644712346195,0.3029184606697074,0.7569515763514741,0.09191042557007857,75.13930761845899,0.3869664471234626,5.237121172266765,7.745316110827102,3.8494687398057383,0.31329970472440943,cracker
117.1017579457032,6.859920165152808,0.37289373781643154,0.29485056057088666,0.7770068216202638,0.08717789623698857,117.1017579457034,0.37289373781643237,5.549116825409309,8.161862731017091,4.083747958178835,0.31532972440944884,cracker
126.95112489053126,7.238811762779752,0.3264229257028617,0.2233486968157681,0.8169012738013463,0.049992909815065156,126.95112489053102,0.3264229257028615,6.041037580807837,8.925242799432098,4.2567357413824,0.2324680118110236,cracker
44.938299704724386,3.969220086877673,0.48674507325960287,0.4045134667673455,0.7643396173284246,0.16380266896693255,44.938299704724415,0.4867450732596035,4.485373523359062,6.46874355777095,3.329649008077298,0.41633858267716534,cracker
38.53815889663027,3.750112375224754,0.45809496492643037,0.35596183193274933,0.7045688320845911,0.1269272578021503,38.53815889663029,0.4580949649264307,4.550234561262258,6.643602530445936,3.360426564998515,0.37420029527559057,cracker
62.37653595619669,4.512090508556009,0.49027710135769154,0.40422993180415256,0.8587728008513915,0.16353936265227392,62.37653595619692,0.4902771013576929,4.88137002402323,6.90374347808496,3.4366808742979273,0.4174458661417323,cracker
82.11380704011395,5.688195563891112,0.4166927050115135,0.35030987969032423,0.6049295152315948,0.12291694775087844,82.11380704011407,0.4166927050115142,4.759661838459525,6.934565516842138,3.7930497372858554,0.36497293307086615,cracker
107.33577353873443,6.666534754944501,0.3704869157752868,0.3031148745474227,0.6376935139260478,0.09212481111505413,107.33577353873456,0.3704869157752872,5.1746548009914815,7.6705516434614545,4.047580532617868,0.32591043307086615,cracker
144.72007924875223,7.8191338921740074,0.3256409124968776,0.23928315918125917,0.7519888488515736,0.05739083790229951,144.72007924875226,0.32564091249687765,5.871147203617373,8.659967153416119,4.327139223990647,0.2512303149606299,cracker
82.92082668930942,5.490260531302295,0.45582899764661056,0.3934008356472065,0.6916659222990966,0.15494318630055384,82.92082668930962,0.45582899764661156,4.672039119046654,6.703407758226439,3.661668648794756,0.406003937007874,cracker
127.6567042235643,7.019872371775959,0.39509668455010927,0.3248796702337925,0.7584203556839552,0.10580340122719176,127.6567042235647,0.3950966845501105,5.379675820926527,7.808321176034212,4.042008988695153,0.3483636811023622,cracker
146.5510494731929,7.84488186554497,0.3244678672746625,0.2325022925504789,0.7624144635399576,0.054194824655912355,146.55104947319268,0.3244678672746621,5.929914359797117,8.720422077871127,4.335184782366968,0.24335629921259844,cracker
67.77740042198826,4.808501476377952,0.4906708066780302,0.43026975757458286,0.6195573228685957,0.18534836094583015,67.77740042198835,0.4906708066780307,4.27848928012953,6.093839148227457,3.4594840619030576,0.44500492125984253,cracker
77.33693676762351,5.600590599618705,0.38693877596210324,0.3103274477115242,0.5665777229771491,0.09660234755881053,77.33693676762354,0.38693877596210363,4.867477395873763,7.200384693309749,3.853106952679463,0.3342150590551181,cracker
131.28650899098662,7.216307413083555,0.3694487855755657,0.2902207984590987,0.7577430333908499,0.08437190949456985,131.28650899098676,0.369448785575566,5.569525809971964,8.113342719673382,4.145204187475123,0.3028420275590551,cracker
80.91680661095697,5.793201613746981,0.3825040238113744,0.3086045176276965,0.600873435093103,0.09542578522905765,80.91680661095697,0.3825040238113745,4.943846244151921,7.2860711073360145,3.8939091269305925,0.32123523622047245,cracker
97.30599991668717,6.116464326678637,0.41547924399247377,0.350711625458923,0.6746401822713963,0.12323767487445172,97.30599991668733,0.4154792439924746,4.936724887199316,7.185409457879426,3.8579493255932977,0.3735851377952756,cracker
146.41685238448568,7.87125177765976,0.33010556331635305,0.24934462155274395,0.7590606914868917,0.06230545403680915,146.41685238448602,0.330105563316354,5.832084584544527,8.56796249822448,4.320196192124653,0.26168799212598426,cracker
75.02950794182829,5.299504434946366,0.4466103632770553,0.3822097042864334,0.6079951544378789,0.14628042000117397,75.02950794182838,0.44661036327705583,4.561375165243602,6.5899171772317064,3.6563689909975574,0.3940083661417323,cracker
130.54866561686208,7.261843355717926,0.3781784029372022,0.3122640329451888,0.7113407831516068,0.09776693256384936,130.54866561686248,0.3781784029372034,5.361863554321484,7.854230232254287,4.107327714070736,0.3345226377952756,cracker
158.80849723808862,8.23644994555612,0.3162121693565746,0.2326697823079128,0.7510776787487321,0.05424827608247011,158.80849723808822,0.3162121693565747,5.945336747772378,8.749777185613635,4.39763704507784,0.2422490157480315,cracker
64.65469914924194,4.623762540493829,0.5069911124317585,0.44740704572856804,0.6263624451332773,0.20037833473299455,64.65469914924205,0.5069911124317592,4.173162025177891,5.904608961767683,3.38107025537325,0.46290600393700787,cracker
79.60763681683616,5.8707931947113945,0.35467949023441503,0.2745279891804893,0.5468635950900271,0.07566056012078541,79.60763681683613,0.35467949023441514,5.027028128251635,7.522625549672583,3.958403141650194,0.29798228346456695,cracker
142.05539008734237,7.499997820308105,0.37582199222492596,0.3011812928037615,0.7583203753928296,0.09085692376208887,142.0553900873427,0.3758219922249272,5.538823819978219,8.03155620238821,4.162817313964702,0.31496062992125984,cracker
61.93484174468347,4.959348504634511,0.42194845780931844,0.3481760904743024,0.5120766146911153,0.1214319389160822,61.93484174468349,0.4219484578093187,4.518340384764411,6.588157611030389,3.6642595871053087,0.359990157480315,cracker
90.80967802560598,6.1815281286812525,0.37517374643322626,0.30626268755055563,0.5565258004741167,0.09405928676917152,90.80967802560605,0.3751737464332266,4.958420584862374,7.322444681439743,3.9591468434216788,0.328740157480315,cracker
144.1191115624416,7.867936950717612,0.33129242441926493,0.2557462605181742,0.7341236657229352,0.065572784685441,144.11911156244187,0.3312924244192659,5.7370893624659605,8.429002927052709,4.310152124107603,0.2704847440944882,cracker
81.84439857942208,5.912400121675247,0.3752199196401438,0.3030355598629691,0.5837759757706986,0.09205283126017152,81.84439857942216,0.37521991964014395,4.9635893876098045,7.33527545996417,3.9201460160201576,0.3179749015748031,cracker
136.86737701209756,7.581557167020563,0.3617201296563861,0.2994635006194368,0.6711572157486221,0.09003349013476525,136.86737701209776,0.36172012965638717,5.374645875628779,7.896585047580847,4.17790287380188,0.328740157480315,cracker
157.0909467951749,8.199772512826256,0.32539939678533547,0.24818649529229353,0.7315614842497682,0.06174715206715707,157.09094679517483,0.3253993967853358,5.819643288160188,8.546847902062296,4.3678714265556335,0.2601500984251969,cracker
77.36118051142343,5.6264126825128695,0.39685165722268845,0.32568714126486237,0.5671436741345847,0.10627906735717889,77.36118051142353,0.39685165722268884,4.7978417735855095,7.0530911204389675,3.829301889537203,0.3369832677165354,cracker
75.26830299363729,5.758669482182716,0.3445921805804901,0.26144453930997585,0.4908345076562505,0.06864702117295089,75.26830299363723,0.3445921805804902,4.972700209257818,7.454488263445341,3.9583327263809407,0.28371062992125984,cracker
152.49348695963,8.02433492757607,0.33592025130726255,0.25850724596222635,0.7365579397431732,0.06697767167334401,152.49348695963016,0.3359202513072635,5.75549602615329,8.442342741840429,4.3238220192150125,0.2720226377952756,cracker
66.85181074268402,5.4918537649575345,0.34772467689936865,0.2615990917653416,0.5361885347811544,0.06860485541826933,66.851810742684,0.3477246768993687,4.975269797941261,7.459914023576762,3.901927885014853,0.2723917322834646,cracker
83.90010193692247,5.912373844278932,0.380406748314797,0.30966726977930004,0.5451198618301856,0.09627487860553227,83.90010193692262,0.38040674831479754,4.872493916703567,7.174182372790936,3.9084308378560433,0.3380290354330709,cracker
158.8540664815702,8.271896457855384,0.3269462408331029,0.24993378394247753,0.7328559371702833,0.06263457911152065,158.85406648157047,0.32694624083310364,5.800841838224977,8.477647858549519,4.371336968051572,0.265009842519685,cracker
78.25149042485576,5.87901039083328,0.35630014422579503,0.27905711743938566,0.5827817730431314,0.07808156577716889,78.25149042485585,0.35630014422579526,5.04473980748123,7.506539481663406,3.9537475378188756,0.2930610236220472,cracker
143.1270845119812,7.900329472533908,0.33828994653044625,0.27283974054619353,0.6904193199855901,0.07478763068899826,143.12708451198154,0.338289946530447,5.569338654141095,8.2517651010482,4.272001670620076,0.30185777559055116,cracker
156.56914285312934,8.127728126549968,0.33545991192020924,0.2564646059307052,0.7475839241944683,0.0659143576228254,156.56914285312945,0.3354599119202098,5.791279641265739,8.473533796674545,4.33767801102414,0.2669168307086614,cracker
60.56622327697778,4.858738893259036,0.4270999146118671,0.352788981881236,0.519826185869013,0.12467823419931759,60.5662232769778,0.4270999146118675,4.489511624437544,6.537142616125352,3.6377400635943054,0.3639886811023622,cracker
68.91692952135904,5.323008052266102,0.3824691252321754,0.30230162074483885,0.45861957807749254,0.09171634910545112,68.91692952135904,0.3824691252321757,4.697112149708687,6.944535867305117,3.816340578651758,0.3264640748031496,cracker
155.28030946296224,8.051326294058786,0.3476302369081615,0.27450097102187765,0.7317795437639294,0.07550675246004737,155.28030946296266,0.3476302369081629,5.654148011886929,8.235065689779855,4.296712727133492,0.28813976377952755,cracker
48.0371104648459,4.465487001286504,0.40613547105948433,0.31749809987044275,0.48860698977944483,0.10113483936465437,48.03711046484593,0.40613547105948467,4.504236336298765,6.621511096792435,3.604006371548617,0.3420275590551181,cracker
84.62606768572905,5.895340036773823,0.38163404037986737,0.30840923785292557,0.5718439816229464,0.09568932720609469,84.62606768572911,0.38163404037986787,4.908942682548025,7.231287226009593,3.8995058144924135,0.3466412401574803,cracker
149.3213821232327,7.955378680288572,0.33412031770817574,0.2543822021799458,0.7489807611096901,0.06486343965597031,149.32138212323298,0.3341203177081765,5.779465876195423,8.466915633601904,4.318822694430776,0.26790108267716534,cracker
60.909612659069055,4.993778796151347,0.4067014076012505,0.32903225232822986,0.5846301387810022,0.10859967339305665,60.90961265906907,0.4067014076012508,4.682996708880712,6.863172662156104,3.698422199244831,0.3560531496062992,cracker
140.67533344441685,7.905832710102907,0.3216724545371896,0.2550108597287344,0.6295890626882512,0.06566166227331587,140.67533344441688,0.3216724545371902,5.537473794233105,8.266599917631789,4.293904356236526,0.29619832677165353,cracker
151.724591816371,7.95388910309067,0.34350079402289396,0.26778899309468046,0.7414941199205572,0.07188449580673892,151.72459181637112,0.3435007940228945,5.711089061200443,8.337319072195594,4.29363632688241,0.28531003937007876,cracker
57.90890668109459,4.8503177748543,0.4101461973856932,0.3312850273716382,0.5305212421692144,0.1099765737621869,57.90890668109461,0.41014619738569336,4.580081175838153,6.7080619933593955,3.66916849317518,0.3482406496062992,cracker
53.32839382866262,4.452066396320295,0.4451095009057626,0.36669834724510736,0.42153740670676293,0.13500336146690628,53.32839382866266,0.44510950090576296,4.2453700419478775,6.122381094005417,3.526286933646178,0.4017593503937008,cracker
142.92754050351812,7.629293266398992,0.3668462267794894,0.29752041738334434,0.7287488396265549,0.08867307064792987,142.92754050351851,0.3668462267794911,5.483546143616706,7.947172198295251,4.194092409357762,0.31071604330708663,cracker
35.28536259416268,3.7553492060109117,0.44013861987878344,0.34766401478059805,0.42677459434574244,0.12138864820296316,35.285362594162685,0.44013861987878367,4.157403606289681,6.0323756138816895,3.381206650916793,0.38170521653543305,cracker
75.47038549545844,5.910770196540398,0.31654586700112963,0.22576995686002382,0.49577729382892843,0.05173438910072982,75.47038549545849,0.3165458670011299,5.132711288917719,7.774138391393449,4.002693349540721,0.2696235236220472,cracker
133.87734328984266,7.446923171190059,0.36540441393074635,0.29917368856585297,0.6943039137645892,0.08974403845331892,133.87734328984283,0.3654044139307475,5.399661272504397,7.835472109366445,4.163530562111302,0.3224040354330709,cracker
69.83392055846605,5.427583612979724,0.3834321937605166,0.3057795372857932,0.605292363169142,0.09392985801618867,69.8339205584661,0.383432193760517,4.8825790447355395,7.191533755999196,3.81882642060009,0.3378444881889764,cracker
125.85318746028122,7.369350359794467,0.3423364437486924,0.27556371540064595,0.6421208820646456,0.07658487173684311,125.85318746028118,0.34233644374869276,5.387405754681625,7.98963695446408,4.1838440506394905,0.3169906496062992,cracker
129.65406255812496,7.315284435256351,0.3636767528899488,0.29419651166341676,0.7194043930813923,0.08686305562192562,129.6540625581251,0.3636767528899495,5.462447841008382,7.9544848633601175,4.150083194382356,0.3213582677165354,cracker
45.482379734290674,4.017198132052516,0.4862413698530529,0.4133164348158022,0.5041536775374451,0.17119803275536022,45.48237973429072,0.4862413698530532,4.056038411591972,5.779738516090115,3.3358491812919926,0.44248277559055116,cracker
50.152708242916454,4.537620997116994,0.395667396661281,0.3035544869646513,0.4054304376908524,0.09312740363674588,50.15270824291649,0.39566739666128126,4.469263425173591,6.57337485813907,3.6322826288451053,0.3532234251968504,cracker
127.97130593089295,7.258593677343573,0.3648613299760976,0.2945868760173824,0.7178022462259473,0.08710206656888635,127.97130593089312,0.36486132997609855,5.441641447429406,7.92125860582523,4.1416192969493695,0.32277312992125984,cracker
49.60681773707293,4.403429720921943,0.4255859774382118,0.3409042571013243,0.5715362250152357,0.11680893082786456,49.60681773707297,0.42558597743821225,4.488415268224623,6.527120344043096,3.5535501110801553,0.3792445866141732,cracker
70.36568193839508,5.476822730989213,0.3589906907779082,0.27054260922627665,0.5326094291781319,0.07419306418508584,70.36568193839513,0.3589906907779084,4.9397536589547775,7.364058277741762,3.865116215780458,0.3218503937007874,cracker
121.15422070687859,6.995542772335512,0.37433534104268834,0.29995280461390156,0.7303859904692476,0.09029828256107106,121.1542207068789,0.3743353410426896,5.40267279099554,7.843358061736273,4.089803790297086,0.328125,cracker
76.78518894537777,5.6667946226517305,0.3803154470610396,0.3029112589862786,0.6757247000479719,0.09216399849335317,76.78518894537788,0.38031544706104015,5.04780750723374,7.431639146733053,3.864682255759506,0.33415354330708663,cracker
95.78095210877893,6.096056840551162,0.40057597871058875,0.3301502712682727,0.6389361482553624,0.11010814175122462,95.78095210877922,0.40057597871058953,4.955597363216115,7.2128465308864085,3.8677859331080904,0.3858267716535433,cracker
106.86919378526221,6.483859381781241,0.39226392859664216,0.3190035796907938,0.7333877515478018,0.10220625568703054,106.86919378526258,0.3922639285966433,5.238828630921674,7.600104203331778,3.973406746552219,0.3528543307086614,cracker
51.52844098266314,4.363767200190653,0.4590247102201243,0.383186786434342,0.5843139857048728,0.14726076777249203,51.52844098266321,0.4590247102201248,4.339255897025011,6.254100452122405,3.4663993958484536,0.41504675196850394,cracker
47.134068244698966,4.401616217294935,0.3946937133258648,0.29456988392727734,0.447165622784614,0.08775411672446799,47.134068244698994,0.394693713325865,4.522256757619766,6.6731891433167965,3.605367077036465,0.3441806102362205,cracker
106.3451100066261,6.497931351331435,0.38954649189679613,0.31776420006854833,0.7233628015470563,0.10127419165310982,106.34511000662626,0.389546491896797,5.217838561477073,7.583830952523057,3.9833660763212735,0.3435654527559055,cracker
6.643678142825037,1.1393105247147994,0.7615961329716832,0.7044171435286442,0.6268103019860403,0.4964966116899906,6.643678142825036,0.7615961329716832,2.177944115367925,2.8695481030955774,1.7591522533933768,0.7322219488188977,linen
10.542979406271312,1.7326712075299147,0.6385369389009306,0.5433563440851492,0.672734862679228,0.29546817057266594,10.542979406271314,0.6385369389009307,3.1046343135528702,4.2784554406867015,2.375593582267154,0.5575172244094488,linen
6.934811228997456,1.0428827732655466,0.8013615821754704,0.7586241571631573,0.5968720072856926,0.5758231601972297,6.934811228997459,0.8013615821754705,1.8811080957465784,2.4464220979681213,1.560018741379236,0.788201279527559,linen
55.796951168121076,5.217169360119973,0.33685527907531804,0.25249694219866897,0.5205235650731447,0.06418692573275153,55.79695116812108,0.33685527907531815,4.917098677418913,7.354570806715891,3.8199739509060366,0.2718996062992126,linen
84.7649727877581,6.69243627549755,0.25355377789602,0.16847325918625064,0.5186456336947728,0.02932204323580495,84.76497278775808,0.2535537778960202,5.486771287790077,8.417983688042096,4.172947694434546,0.21598179133858267,linen
57.9099496636493,5.024031829313662,0.39739974247038734,0.3249119018570453,0.5353145252732205,0.10628726135774537,57.90994966364933,0.39739974247038756,4.638629188069839,6.770492867083858,3.683286839025355,0.3658956692913386,linen
2.3640195600703704,0.5230854797647096,0.8668086816319964,0.8251895702312613,0.6072175945867779,0.6810220920246821,2.3640195600703704,0.8668086816319965,1.3483104217572974,1.7119744743691159,1.1135489212837555,0.8340305118110236,linen
0.8762194165013332,0.19159515662781323,0.9513725155877192,0.9363059692013866,0.4929136374031651,0.8766792738358378,0.8762194165013331,0.9513725155877192,0.5667076789375181,0.6805030300491653,0.5042188937142607,0.9394069881889764,linen
2.468126971410194,0.4478769074725649,0.900430734355905,0.8738356294881809,0.590958183988442,0.7636509088878229,2.468126971410193,0.900430734355905,1.0605882765903378,1.3213587185801368,0.902783922097548,0.8860113188976378,linen
35.91605098444568,3.5182380872574237,0.535275565485871,0.4749025320692377,0.4765759093301605,0.22615240340676393,35.91605098444572,0.5352755654858712,3.671455255563895,5.083112929351238,3.0680370383418962,0.5123031496062992,linen
59.63797643220282,5.027846532255567,0.4151304512131522,0.35165929287937253,0.4412561134094394,0.12472902233370146,59.63797643220287,0.4151304512131525,4.393769173285419,6.27497853709161,3.639423083361487,0.40231299212598426,linen
71.28307779271802,5.1158033956692925,0.48707169366602565,0.43834564474399174,0.4740278234453556,0.19334476844856902,71.28307779271807,0.487071693666026,4.121340650587231,5.7777991344608,3.4596830195550776,0.4961860236220472,linen
124.4075811862561,8.303175641507528,0.23551643860604504,0.1717359641210015,0.3672927875611698,0.029911145603189252,124.40758118625612,0.23551643860604496,5.4911647828422385,8.430557895844423,4.437239716252303,0.187623031496063,linen
140.4455052816355,8.551945932016851,0.2567234297120613,0.1973165647997849,0.3268515269253095,0.040888106613824596,140.44550528163558,0.2567234297120615,5.3871818967113185,8.136595294426634,4.431741141180036,0.2704847440944882,linen
138.5251001205126,8.43015298530596,0.2746567994763136,0.21812568798626517,0.3677997882491955,0.04843942884739699,138.52510012051275,0.2746567994763139,5.353671082354104,8.094452368404147,4.413768766183512,0.2627337598425197,linen
19.782992784735566,2.2097953414656843,0.6689669211276557,0.6198839772690421,0.37216652382238746,0.3847110952243358,19.78299278473557,0.6689669211276559,2.705244731053937,3.5927564035199637,2.3757080513546707,0.6450541338582677,linen
49.123453993001704,4.363894106694463,0.4666898885147794,0.40470573860236,0.4010371576279297,0.16458381358326543,49.12345399300174,0.4666898885147795,4.028338878064224,5.6693075521712375,3.410343390736889,0.43503937007874016,linen
60.628093588218405,4.499201142933537,0.525041467974283,0.4776128165629151,0.4370448436948148,0.2288768100380216,60.62809358821842,0.5250414679742834,3.8232833926284235,5.317108207733614,3.2712199828879127,0.5169168307086615,linen
43.30146337245798,3.7020117829298176,0.5696779368228037,0.5267943983295376,0.2680577807135618,0.27820811694944675,43.30146337245799,0.569677936822804,3.3268590241321556,4.446990676331063,2.9837874398414552,0.5659448818897638,linen
133.55370445897123,8.469612189224376,0.2510858038753841,0.19900648080089584,0.2649290217544793,0.041101778331227266,133.55370445897142,0.2510858038753843,5.265513245179206,7.843740998987679,4.4229897335939095,0.25978100393700787,linen
146.08923828003884,7.975566138632245,0.38435828790153825,0.34430077899015143,0.31824186727916004,0.12046055215960332,146.08923828003907,0.38435828790153914,4.737710345750787,6.704035487335503,4.102975949024927,0.4180610236220472,linen
48.706359420531314,4.028660526071054,0.5349314947242685,0.48717260566671095,0.24362315304819193,0.23789653951643452,48.70635942053134,0.5349314947242687,3.528072866148764,4.758701914657017,3.166674495870468,0.5137180118110236,linen
152.93329585877908,8.925408280504051,0.26863501528406586,0.21814916841582382,0.19061830625624318,0.05067767161759202,152.93329585877922,0.2686350152840661,5.178036681628025,7.677560562190556,4.42756040688174,0.3110851377952756,linen
125.56553267794027,7.523240843356662,0.36248592449190575,0.31702419473991056,0.27334487754839265,0.10212447063605155,125.56553267794034,0.3624859244919064,4.747146548248363,6.8263187712907545,4.116004692277238,0.3812746062992126,linen
77.97253685132367,6.053469536626574,0.358682111776353,0.3004715789646886,0.25336529715132133,0.09158008118508083,77.9725368513237,0.3586821117763532,4.562398042885758,6.589661239261224,3.91359336033393,0.343626968503937,linen
47.529990864669216,4.003740593418686,0.5352778606319757,0.48855441180014414,0.21841199293173436,0.2394670464886136,47.52999086466923,0.5352778606319761,3.490756083569557,4.673520008803254,3.1542421226798667,0.5230068897637795,linen
109.89480322710641,6.653317587885168,0.4289609528906277,0.3870785841788073,0.2900374458396821,0.15094990257082402,109.89480322710645,0.4289609528906283,4.376259761265606,6.137897388909211,3.842626495244522,0.43633120078740156,linen
12.043276692022133,1.3309950487088476,0.8045910869453475,0.7790749031621818,0.0924349935749938,0.6070935112853054,12.043276692022134,0.8045910869453478,1.667967421227337,2.016291783597711,1.6040146086363951,0.7942913385826772,linen
124.3011670554589,7.950126712753414,0.28772500004827073,0.23871613657769236,0.14081163312456757,0.058927796407803365,124.30116705545912,0.28772500004827106,4.916384278923894,7.12342405986735,4.314806293917281,0.3083169291338583,linen
106.97843533968312,6.439636582398153,0.45984843939374376,0.42524164585290497,0.162845803449322,0.18317340206803465,106.97843533968319,0.4598484393937444,4.065314687947868,5.502721061000806,3.695775130840677,0.5068897637795275,linen
58.24335472499066,4.6794434956057405,0.47827730187835205,0.4288973257003914,0.13484031085725381,0.18467519705198018,58.2433547249907,0.4782773018783524,3.7714103257689757,5.105697876391155,3.4379717950944158,0.4578617125984252,linen
187.28173255955875,10.372473616040958,0.19372282291509632,0.14712411784395898,0.12090748106920463,0.02422747680333944,187.28173255955886,0.19372282291509646,5.503575224650509,8.403860714653014,4.691213276836324,0.23043799212598426,linen
91.36840001414369,6.087063310845364,0.43575325094454076,0.3943769984418436,0.13029311740995272,0.157606999947367,91.36840001414377,0.43575325094454115,4.110551728536131,5.61476060317225,3.7410984990649285,0.4665969488188976,linen
36.113398468984414,3.4765203592907192,0.5518390175441006,0.5040482399508934,0.11616178109579396,0.25510849648672385,36.113398468984435,0.5518390175441009,3.2582969261870063,4.312531488182116,3.001352423667252,0.5433686023622047,linen
29.840287075105383,2.73892655988437,0.6545706269298188,0.6159715473597087,0.102579830752688,0.37988348570794467,29.8402870751054,0.6545706269298192,2.6808507551602174,3.3862089019616994,2.5304841966682448,0.6426550196850394,linen
92.37007292764575,5.976671484592965,0.4646170278525643,0.42646306498171177,0.15932850965954448,0.18355358524955734,92.37007292764585,0.46461702785256487,4.000771041129046,5.428480257505372,3.6362276952647905,0.49101870078740156,linen
33.05150527097928,2.9712538604764713,0.6346407625329861,0.5979006664611406,0.039374490194915436,0.3581453080396443,33.05150527097929,0.6346407625329865,2.763013200557319,3.47520187962663,2.639756616645127,0.6361958661417323,linen
60.765413812077554,4.668475891639282,0.4986579152330188,0.45367494302986416,0.04284462285475441,0.2069095134068477,60.76541381207762,0.49865791523301906,3.6048229712696482,4.737897165969753,3.378859967457834,0.5001845472440944,linen
76.8551789720766,5.229266165563578,0.5137007256708294,0.4807923173554189,0.059094682625387404,0.233285820832418,76.8551789720767,0.5137007256708299,3.594189750354314,4.6650332838556325,3.3710581692647827,0.5578863188976378,linen
18.242856423212835,1.949422187906876,0.7222223867216679,0.6874486176100155,0.036929652693473515,0.47279554481847247,18.24285642321285,0.7222223867216682,2.1899876309553283,2.6912672921515446,2.112060057249385,0.7026943897637795,linen
85.87690081239526,6.196754608352963,0.3737622658430101,0.3237671116155326,0.091256691722931,0.10741638248444244,85.87690081239538,0.3737622658430104,4.337102745977726,6.034887105441447,3.913970439392311,0.4037278543307087,linen
101.83982885543885,6.789187105717959,0.3777163754236962,0.33769264044354996,0.06233428568234253,0.11628234066881667,101.83982885543895,0.3777163754236965,4.344463077921879,5.962383972263822,3.968133309117948,0.4096333661417323,linen
16.84588064879254,2.020183341147933,0.6846789286855095,0.6429991711981327,0.02381675208782163,0.4138366665218075,16.845880648792548,0.6846789286855097,2.3675559006589952,2.9520827968299943,2.2700919615781334,0.6650467519685039,linen
16.768596767662274,1.7894205749349,0.7446650815531856,0.7129835090511585,0.0045477433730274856,0.5085279365125812,16.768596767662284,0.7446650815531857,2.034710147661068,2.453838558702204,1.9816495642584113,0.7280388779527559,linen
101.0118984534843,6.6745344662564285,0.3993746689410757,0.3602664154752009,0.06296948522888718,0.13195151783586556,101.0118984534844,0.39937466894107615,4.247148583637445,5.788259179945193,3.8924241642696065,0.43356299212598426,linen
9.06499950109275,1.0865663411014324,0.8270370243621079,0.8016352405275947,-0.01557747431243249,0.6426749879762907,9.064999501092753,0.8270370243621079,1.4726299866639492,1.7183117738056424,1.4538363115189625,0.812992125984252,linen
35.856474435605094,3.1922656540625587,0.6100183024823476,0.5700107416889396,-0.012011110912064294,0.3253792880545855,35.85647443560512,0.610018302482348,2.8854833576733743,3.6199338865722366,2.776974777901648,0.5974409448818898,linen
96.14765668593817,6.272909045818082,0.43766643297854957,0.40198013335345284,-0.005167067374748639,0.1641435589856225,96.14765668593837,0.43766643297855023,3.9814343091582813,5.250182937805941,3.7424939749501753,0.4856668307086614,linen
3.751280932249365,0.5452150435550872,0.8987354935778127,0.8816079693242695,0.0032683746310354436,0.7772374191409297,3.7512809322493643,0.8987354935778127,0.9392179687098283,1.0775224613966772,0.9298904074642315,0.8839197834645669,linen
20.18467293965837,2.1427545589466184,0.6899833717344117,0.6510375106444213,0.05337949777538473,0.42434988895439685,20.18467293965838,0.6899833717344119,2.3877369861709696,2.974070927578779,2.2849427683565438,0.6868848425196851,linen
57.41120080677656,4.746049187410874,0.46227753572857383,0.41466570833884037,0.07959356462339784,0.17332250609975497,57.41120080677661,0.46227753572857416,3.7815341094142925,5.055285910161597,3.4823355667933225,0.468996062992126,linen
19.487463138988772,2.3024620346115703,0.6461887379406002,0.6016879694325863,-0.01043411660841264,0.36228724067009316,19.48746313898878,0.6461887379406003,2.5709974008853624,3.235936591505613,2.4677122705697867,0.6121432086614174,linen
9.704474834730917,1.128017541191333,0.823451163290203,0.7973775808507233,-0.02579320795521175,0.6358392008580541,9.70447483473092,0.8234511632902032,1.5021595425547214,1.7504422308304421,1.485588658825721,0.8027805118110236,linen
69.44495248756115,5.057166172926093,0.49170468902352404,0.4530232902337269,-0.012872714206347675,0.2070362792392652,69.44495248756122,0.4917046890235245,3.6263537505781027,4.712148194257792,3.441042896461829,0.5219611220472441,linen
0.7879443180761363,0.1595224440448881,0.9606436772493481,0.9500755638895217,-0.007253382149746348,0.902643739013195,0.7879443180761362,0.9606436772493481,0.428414164475858,0.48020891577523306,0.4272986688978322,0.9506643700787402,linen
4.843332710102921,0.6133895080290163,0.8953986135971106,0.8778680873325234,0.0057805057296831195,0.7706600518124062,4.843332710102921,0.8953986135971107,0.9819607114088502,1.123523478267015,0.9727380864676747,0.8821358267716536,linen
28.499674983724944,2.7910968790687587,0.6285939308650754,0.5891274133300539,0.010296243007202895,0.34778948752279176,28.499674983724965,0.6285939308650756,2.741994737164902,3.4444150986435402,2.6282208796033837,0.6321973425196851,linen
3.539050148412797,0.5367297453344908,0.8925130246145518,0.8700494949573069,-0.006099461337115683,0.7569892913194576,3.539050148412797,0.8925130246145518,0.9925026837405837,1.145168714821713,0.9839521068760558,0.8724163385826772,linen
77.8183355194835,6.283470137252774,0.29299666520944706,0.2259468801508172,0.11983082514160052,0.05201941519955158,77.81833551948354,0.2929966652094473,4.692241448868337,6.914729932096393,4.086771301499281,0.2578125,linen
28.767181663269554,2.9189264823842156,0.5993230477719623,0.5520959408505681,0.08606831665193584,0.3051662424706047,28.767181663269575,0.5993230477719627,2.9524346429011112,3.806407861398413,2.7653707444321296,0.577263779527559,linen
0.39573734616219225,0.09671171686093372,0.9732037794227133,0.9647580103006743,-0.006884940430246292,0.9307580300240588,0.39573734616219236,0.9732037794227133,0.31148086787579643,0.34743955482772637,0.3112372341595008,0.9648745078740157,linen
0.17428053215481432,0.034257611483972966,0.991759314358414,0.9896452808829833,-0.0020258892779815548,0.9793977939957372,0.17428053215481432,0.991759314358414,0.11246420698086933,0.12287906825804444,0.11247735217298722,0.989769979539959,linen
22.858821963737665,2.3911792472022446,0.6626997251014335,0.6242827944893516,0.002706979918401211,0.3900944164280731,22.85882196373768,0.6626997251014337,2.5215895014850522,3.136887406521539,2.4308398578027277,0.6549581692913385,linen
0.10156504297383595,0.02453158421941844,0.9932562303228911,0.9912348120998513,-0.0020371660955245713,0.9825464570566732,0.10156504297383595,0.9932562303228912,0.0941772311514446,0.10302346487181852,0.09415139767955072,0.9913199826399652,linen
1.373485477439705,0.2035135906209313,0.9594377796510273,0.9502918592737584,0.01697182937889563,0.9030550484238411,1.373485477439705,0.9594377796510272,0.4494839919539031,0.5045870025323438,0.4460191645836788,0.9513410433070866,linen
4.889628638632279,0.7363461680048362,0.856339167528079,0.8301451519101913,0.02817390580410597,0.689175725956078,4.889628638632278,0.8563391675280791,1.2492606431412017,1.4785369922483207,1.223532086583969,0.8393823818897638,linen
0.05439094081313162,0.014466493776737553,0.9959130231562924,0.9948137023046179,0.005019814719523433,0.9896543027054413,0.05439094081313163,0.9959130231562924,0.059370561399940895,0.06469627207525896,0.05933242621941638,0.9948326771653543,linen
14.252812892344533,1.7432132872078245,0.7137899476327645,0.6673805659616093,0.15000609461056977,0.4456656833963287,14.252812892344535,0.7137899476327647,2.2723354021771898,2.9066767901580097,2.1188064808834612,0.6808562992125984,linen
5.758521505324263,0.85187794984965,0.834360842036814,0.7998497156843265,0.26560880183393587,0.6397901009105242,5.758521505324261,0.8343608420368142,1.463681214571047,1.7736770945771845,1.3813694645854744,0.8083169291338582,linen
0.0028706541788083573,0.0016052219604439206,0.9993239322416145,0.998950481275017,-0.00044962204664962947,0.9979020673608339,0.0028706541788083577,0.9993239322416145,0.013240987118878982,0.01429062984316443,0.01324098711887898,0.999007998015996,linen
0.026158603098456197,0.005448866366482733,0.9984934669582999,0.9981323483349692,-0.000573612882537212,0.996268190145039,0.0261586030984562,0.9984934669582999,0.02372214321185792,0.02559001804135758,0.02372214321185792,0.9982019964039928,linen
4.60294769417664,0.6892361245659995,0.8641915382312494,0.8358542667099796,0.19225648072598317,0.6986734033031674,4.602947694176638,0.8641915382312493,1.234759517782658,1.4676813161636337,1.1828815845372265,0.843011811023622,linen
0.006421856593713187,0.0019142538285076569,0.9994213767415091,0.9992744474758599,0.03675506229595994,0.9985494220170268,0.006421856593713188,0.999421376741509,0.009955573786253719,0.010681168987444123,0.00989512158013601,0.9993179986359972,linen
0.030462041392832782,0.006499962218674438,0.9982546400971556,0.9975764569727095,-0.0006939664728945052,0.9951587880138819,0.03046204139283279,0.9982546400971557,0.029921841783450715,0.0323457802250776,0.029921841783450715,0.9976008858267716,linen
1.4477537548825101,0.23163149451298906,0.9485669173852783,0.9345253696222962,0.47324539729987014,0.8733425803957782,1.44775375488251,0.9485669173852784,0.5790683122474152,0.6771653464051728,0.5420637500998995,0.9381151574803149,linen
0.02976538765577531,0.007781499937999876,0.9978595912816596,0.9971748506822906,0.2592134467102196,0.994357695474048,0.029765387655775313,0.9978595912816597,0.035888246174214405,0.039038990405800326,0.03432624606016471,0.9972933070866141,linen
8.744591700120903,1.2673571284642573,0.7571851957893361,0.7044603407275032,0.37559216480460944,0.4963538295476404,8.7445917001209,0.7571851957893361,2.0868923427801005,2.7351205241913226,1.8400798376872571,0.7152436023622047,linen
3.8005911324322663,0.5535385602021207,0.8889040725868464,0.8618297678422125,0.5922979898512641,0.74277970215825,3.8005911324322645,0.8889040725868464,1.1239342235794494,1.3637341355860273,1.0146117901015628,0.8704478346456693,linen
0.00012351587203174405,0.00012351587203174405,0.9999382420639842,0.9998764879425408,-6.17617503527608e-05,0.9997529911405445,0.00012351587203174405,0.9999382420639842,0.0017817918952368144,0.0019053077672685585,0.0017817918952368144,0.999876968503937,linen
0.0,0.0,1.0,1.0,1.0,1.0,0.0,1.0,0.0,0.0,0.0,1.0,linen
2.0804486726160962,0.337608475998202,0.9257137442817699,0.9061020849949887,0.48100519747441695,0.8210334770089422,2.080448672616095,0.9257137442817698,0.7991615578385938,0.9625223130664081,0.7262476278569268,0.9120324803149606,linen
0.0015141592783185567,0.0011431272862545724,0.9994655395560792,0.9989037425249689,0.46706910024559517,0.9978086917624709,0.0015141592783185567,0.9994655395560792,0.014031493557124523,0.015130221308168254,0.01162766275845988,0.9990157480314961,orange_peel
2.2722047631595257,1.0193827887655778,0.6013677139849014,0.16218599420990437,0.9059040792568738,0.026446816976333568,2.272204763159526,0.6013677139849014,4.557653699073635,5.953322601574587,1.9002948200352028,0.10949803149606299,orange_peel
0.04421843999938,0.02740211730423461,0.9879603245101569,0.9740107231189854,0.7967912551680573,0.9486972834538863,0.044218439999379994,0.9879603245101569,0.24698154282799928,0.281487603937395,0.16502218481213238,0.9749015748031497,orange_peel
0.00690586928048856,0.005328741126232253,0.9974933422523096,0.9937957567887865,0.6849730057193136,0.9876300371164077,0.0069058692804885614,0.9974933422523096,0.06698293636538169,0.07363348310357737,0.04517870390662561,0.9939099409448819,orange_peel
0.8140117373984745,0.4573947741645483,0.8038708864278484,0.538699194616696,0.890931237202474,0.290266873902913,0.8140117373984748,0.8038708864278487,2.725204860448475,3.3606043341943863,1.293387575789565,0.5426919291338582,orange_peel
0.012143063348626696,0.00815495380990762,0.9963191458092475,0.9922067111385942,0.6503666145976541,0.9844741905543479,0.0121430633486267,0.9963191458092475,0.08284774174448709,0.09260843718703861,0.06191745588183822,0.9924950787401575,orange_peel
0.058739304978609956,0.042724866699733396,0.9802100084120983,0.9499985641510353,0.7957165223322469,0.9025008088487436,0.058739304978609956,0.9802100084120983,0.4138554695944153,0.46838801614600906,0.2486625469967345,0.9514640748031497,orange_peel
0.0161148251984004,0.010828830251410505,0.9951141843689938,0.9894154420158836,0.6435493277352882,0.9789431250044385,0.0161148251984004,0.9951141843689938,0.10690206075125488,0.11991297230775341,0.07857156237098101,0.9898499015748031,orange_peel
0.2614052376542253,0.1407559026055552,0.9409495901411719,0.8751613223287475,0.8871133375808729,0.7659182962729906,0.2614052376542253,0.9409495901411719,0.9820373387634658,1.164652223261049,0.582893128000308,0.8773991141732284,orange_peel
0.07962402252929507,0.043423215752681515,0.9816380793205419,0.964003957522723,0.6709100930958549,0.9293063130954786,0.07962402252929507,0.9816380793205419,0.31411102857627227,0.36461151157753985,0.23393180365811583,0.9665354330708661,orange_peel
5.23498482934466,1.5416505208010423,0.5043667670702262,0.1409415214882019,0.8216607797181622,0.020044361949129622,5.234984829344659,0.5043667670702261,4.686363168862898,6.526538789680674,2.3735447280626905,0.11472687007874016,orange_peel
1.2740292863398226,0.4329498932435365,0.8515367243685067,0.7500160906883722,0.8627975754109,0.562571544869696,1.2740292863398226,0.8515367243685066,1.8285008496555013,2.3112548185027846,1.1781408196911909,0.7589812992125984,orange_peel
1.3596300239475478,0.5691066460257921,0.781596637252747,0.5593019336752489,0.8898034842469578,0.31292648813232193,1.359630023947548,0.781596637252747,2.779775489549645,3.518450398901589,1.4707941788089958,0.5657603346456693,orange_peel
1.6678544372713742,0.6530281732438464,0.7586342480299011,0.5525128061306883,0.8550481590401979,0.30541916293995736,1.6678544372713744,0.758634248029901,2.7926727524710775,3.6034827753417944,1.5781540764139597,0.5672982283464567,orange_peel
1.6192898127983757,0.5497176814666129,0.8100030346405089,0.6740518695566623,0.8670303954128781,0.45440759563000166,1.6192898127983755,0.8100030346405089,2.2577941283394805,2.8896748865943285,1.3965197295961944,0.6815944881889764,orange_peel
0.12959793888337778,0.06382379952259905,0.9742440362399796,0.9497420893106565,0.7465429878839744,0.9020134738072988,0.12959793888337776,0.9742440362399795,0.4356703023947157,0.5119037903634414,0.30671804258354807,0.9515255905511811,orange_peel
0.7584999505936512,0.31220586269297534,0.883203704834812,0.7857999590388348,0.8117553020073827,0.6175212087134341,0.7584999505936512,0.883203704834812,1.5131544775026438,1.8822984304090529,0.9784678088517997,0.7926919291338582,orange_peel
2.1007724827949654,0.6664003406131813,0.7785545118378209,0.6277308459632739,0.8753340697442338,0.3941259903080082,2.100772482794966,0.778554511837821,2.577415712095669,3.335798025768061,1.556096367048545,0.633550688976378,orange_peel
0.004232961590923181,0.002347528132556265,0.999003855176828,0.9982709502794783,0.25728304299701354,0.9965448925421767,0.004232961590923182,0.999003855176828,0.021135326520780737,0.02301224940907827,0.019477703688452995,0.9983390748031497,orange_peel
1.3131029269871037,0.49537021339667675,0.8213163559630776,0.6947104327272104,0.6866161518526405,0.4828208252062382,1.3131029269871042,0.8213163559630776,1.8993963894868227,2.438146906610769,1.3210632938872413,0.7154896653543307,orange_peel
2.04202566998884,0.5586465469805939,0.8290108432069956,0.7356156432578654,0.8112292300638694,0.5411922914407165,2.04202566998884,0.8290108432069957,1.9229532746683482,2.474957028759575,1.3313640048257587,0.7455093503937008,orange_peel
0.004820267453034906,0.002131496450492901,0.9991878453885585,0.9986876179191349,0.30319925761725847,0.9973769613057895,0.004820267453034906,0.9991878453885585,0.01686780774484735,0.01828791683524694,0.015953299732578797,0.99876968503937,orange_peel
3.0530495826616657,1.0428769607539217,0.6364055069455985,0.3537728218076879,0.8053541440837901,0.1253774996179683,3.0530495826616653,0.6364055069455985,3.6266516135998588,4.899541015006173,2.017907275113206,0.3641732283464567,orange_peel
0.2937582828290657,0.09752474192448385,0.9671641905983038,0.9477778734978846,0.7161062407821769,0.8982851394913953,0.29375828282906563,0.9671641905983038,0.4730767664100437,0.5690556615894866,0.370337356207612,0.9494955708661418,orange_peel
0.0007103373581747164,0.00046330561411122824,0.9997930503673507,0.9996448480323525,0.04150878791486438,0.9992898229537367,0.0007103373581747164,0.9997930503673508,0.004910873571648142,0.0052930305550871765,0.0047159287389418785,0.9996924212598425,orange_peel
0.4790828292594084,0.16975621841868685,0.940959582272429,0.9039491938054551,0.6967503045351598,0.8171313934289663,0.4790828292594086,0.940959582272429,0.7677099532855276,0.938476236960951,0.5914491061966731,0.906988188976378,orange_peel
6.299588231988964,1.4684031868063743,0.5877382863055743,0.3817226263987184,0.8336874115233475,0.14590317494760494,6.299588231988964,0.5877382863055743,3.9196612789212564,5.394590815281129,2.375666421090739,0.3863804133858268,orange_peel
0.2515159756882014,0.09207514899404798,0.9675338173294742,0.9469425676764721,0.6563424205524948,0.8967046558383949,0.2515159756882014,0.9675338173294742,0.46173203857219713,0.5526912665759648,0.3685938163554611,0.9501107283464567,orange_peel
0.04066433132866266,0.015322749395498794,0.9945327973540485,0.9915411915177982,0.5947633971800665,0.9831541742619601,0.04066433132866266,0.9945327973540485,0.09419907587157705,0.10662269225463732,0.08097720352152796,0.992310531496063,orange_peel
3.416868005611012,0.8584965841806682,0.7496217212329206,0.6270112152960903,0.7967320908915703,0.39325895241689257,3.4168680056110112,0.7496217212329207,2.5513169185052456,3.3739110639545498,1.7453352307590269,0.6416707677165354,orange_peel
0.0007720952941905883,0.0005250635501271002,0.9997621713993428,0.99955221973051,0.10694585059755822,0.999104640743949,0.0007720952941905883,0.9997621713993429,0.006046065518180911,0.006575048520680587,0.005459879692933456,0.9995693897637795,orange_peel
3.3172350172825347,1.0218993641112284,0.6669788206565345,0.46112232080865545,0.7948935138995293,0.2128860622818805,3.3172350172825347,0.6669788206565345,3.2380619406758164,4.361248740865262,1.9941638268577564,0.4807455708661417,orange_peel
0.36469708095666187,0.10293013554777108,0.9680245414811133,0.9517121112356892,0.6767823395199487,0.9057579709490338,0.3646970809566619,0.9680245414811134,0.447834836357646,0.5398113094124078,0.3627194015864803,0.953371062992126,orange_peel
0.0,0.0,1.0,1.0,1.0,1.0,0.0,1.0,0.0,0.0,0.0,1.0,orange_peel
0.004292297647095294,0.0020687697625395253,0.9991792491397482,0.9987342112433713,0.4057780261744915,0.9974700349506913,0.0042922976470952945,0.9991792491397482,0.01650527413829862,0.01792558557267149,0.014644274178506299,0.9988839977679955,orange_peel
3.5160747430869868,0.8845460815921634,0.742879438046767,0.6162607271403793,0.7740185914173406,0.37990501551374917,3.5160747430869863,0.7428794380467671,2.586571173740252,3.441664079130655,1.774580814376257,0.6243233267716536,orange_peel
0.0016994330863661727,0.0010813693502387004,0.9995211216984934,0.9992123562883861,0.14029295122461152,0.9984253436565529,0.0016994330863661727,0.9995211216984934,0.010175334815688233,0.010997578678550892,0.009828786780834538,0.9993848425196851,orange_peel
0.0014204325283650567,0.0008028531682063364,0.9996603313519128,0.9994133563761621,0.11517864674653439,0.9988270578613816,0.0014204325283650567,0.9996603313519127,0.007640344402300524,0.00822704479445131,0.007640344402300524,0.9994463582677166,orange_peel
2.4034237873163247,0.6145683580429661,0.8222123121294562,0.739804148416128,0.7551404207898671,0.5473700847851961,2.4034237873163247,0.8222123121294563,1.8869024128934813,2.453112040643602,1.3733749634680623,0.750246062992126,orange_peel
0.0,0.0,1.0,1.0,1.0,1.0,0.0,1.0,0.0,0.0,0.0,1.0,orange_peel
0.3446006852951206,0.10400750879626759,0.966725632840498,0.9496399774145137,0.5757111607985025,0.9018277255953983,0.3446006852951206,0.9667256328404978,0.4463387999915608,0.5338910900215962,0.3729547503450833,0.9554625984251969,orange_peel
0.7032296252092504,0.19293736243722487,0.9416870134019488,0.9137416887372659,0.6471086425069403,0.8349317274338849,0.7032296252092505,0.9416870134019488,0.7266017421957052,0.8959401076911642,0.5895696410472149,0.9168922244094488,orange_peel
0.0005248213621427243,0.0005248213621427243,0.9997375893189286,0.9994752482151689,-0.0002624802397445227,0.9989507745159688,0.0005248213621427243,0.9997375893189286,0.0064717376337816435,0.006996558995924367,0.0064717376337816435,0.999507874015748,orange_peel
0.0,0.0,1.0,1.0,1.0,1.0,0.0,1.0,0.0,0.0,0.0,1.0,orange_peel
0.44769090710056414,0.11841793605462211,0.9653889217579581,0.9509649292635832,0.6467387136200288,0.9043384064082385,0.44769090710056425,0.9653889217579581,0.45347465222803623,0.5441886717908105,0.38438321258836267,0.9530634842519685,orange_peel
0.0,0.0,1.0,1.0,1.0,1.0,0.0,1.0,0.0,0.0,0.0,1.0,orange_peel
0.0,0.0,1.0,1.0,1.0,1.0,0.0,1.0,0.0,0.0,0.0,1.0,orange_peel
1.2528206423600348,0.3165729964272429,0.9093943200795247,0.8705621956593127,0.691224108287028,0.7578986737663137,1.2528206423600348,0.9093943200795247,1.0419201007475023,1.3028171892660652,0.8305839269847355,0.8771530511811023,orange_peel
0.0,0.0,1.0,1.0,1.0,1.0,0.0,1.0,0.0,0.0,0.0,1.0,orange_peel
0.00012351587203174405,0.00012351587203174405,0.9999382420639842,0.9998764879425408,-6.17617503527608e-05,0.9997529911405445,0.00012351587203174405,0.9999382420639842,0.0017817918952368144,0.0019053077672685585,0.0017817918952368144,0.999876968503937,orange_peel
0.06521504839884679,0.018704541315332633,0.9942575656125899,0.9917419557887142,0.5443210435235438,0.983552130867091,0.0652150483988468,0.9942575656125899,0.09444260091574441,0.10706062661872104,0.08418121906518562,0.9918799212598425,orange_peel
0.0,0.0,1.0,1.0,1.0,1.0,0.0,1.0,0.0,0.0,0.0,1.0,orange_peel
0.0,0.0,1.0,1.0,1.0,1.0,0.0,1.0,0.0,0.0,0.0,1.0,orange_peel
0.7540439338691178,0.18582781306187615,0.947958322032176,0.9275454436438169,0.6681161275058618,0.8603457478053524,0.7540439338691178,0.9479583220321761,0.6437023518873609,0.7870277307138636,0.532169659513654,0.930179625984252,orange_peel
0.0,0.0,1.0,1.0,1.0,1.0,0.0,1.0,0.0,0.0,0.0,1.0,orange_peel
0.04634267081034162,0.008571032767065535,0.9981396812965889,0.9976537432741122,0.918166257912527,0.9953130352857517,0.04634267081034163,0.9981396812965889,0.03441811423808078,0.03733940046859538,0.02897663557379844,0.9980159960319921,orange_peel
0.1722046178467357,0.050349671011842026,0.9843669300077366,0.9775966218386216,0.8861679537816262,0.9556959826142937,0.1722046178467357,0.9843669300077365,0.2352967687723093,0.26971455417227047,0.19781002685073226,0.9790846456692913,orange_peel
0.31513718496187004,0.03229068176886353,0.9944190001523889,0.99189543412191,0.9653721965426485,0.9838566294278939,0.31513718496186993,0.9944190001523889,0.11121940062049558,0.12303217551398977,0.08176574064047124,0.9923739847479695,orange_peel
0.0,0.0,1.0,1.0,1.0,1.0,0.0,1.0,0.0,0.0,0.0,1.0,orange_peel
0.17196206658038318,0.02778416884958769,0.9930900091342572,0.9892254471440858,0.956958422703388,0.9785670312495165,0.17196206658038315,0.9930900091342572,0.13532073238716474,0.15120539133456223,0.10110668804041775,0.9895839791679584,orange_peel
0.017117241265732528,0.0027174702786905572,0.9994273741440458,0.9992591638880768,0.7436489119930457,0.9985188877653034,0.01711724126573253,0.9994273741440458,0.01109602222217945,0.011852254203393413,0.010465256273185852,0.9994419988839978,orange_peel
0.029269749945749896,0.006177125635501271,0.9984755837707788,0.9979776749606348,0.88054600405978,0.9959594531369036,0.029269749945749893,0.9984755837707788,0.028956643176838524,0.03167417192589629,0.02495552899965465,0.9981399962799926,orange_peel
0.06812808547492095,0.020031004905759812,0.9938573000166001,0.9909233143025786,0.9633953355519123,0.9819290567500538,0.06812808547492094,0.9938573000166001,0.11743349644183952,0.13050933984851165,0.0872010899978789,0.9912579825159651,orange_peel
0.8766807846115701,0.12705375410750827,0.9717846211650079,0.9558049451131572,0.9560299029725222,0.9135633718870312,0.8766807846115692,0.9717846211650077,0.5113450256669985,0.6133799835337621,0.3354303081338999,0.9566619133238267,orange_peel
0.4013266815596132,0.04869371066867133,0.9915864066670667,0.9883449007768069,0.9680461365764009,0.9768257354310935,0.4013266815596131,0.9915864066670668,0.15823497662203395,0.1778456267713291,0.11684816409081794,0.9888399776799554,orange_peel
0.6861000323563156,0.12518200427025866,0.969302477351012,0.9530592473621825,0.9736361991634384,0.9083222245567245,0.6861000323563147,0.9693024773510119,0.5382814968837829,0.6360831261727217,0.35381155682744536,0.9538719077438155,orange_peel
1.076653465806933,0.11277483492466997,0.9809787255241389,0.9714415090036034,0.9759854754597549,0.9436988991750548,1.0766534658069316,0.9809787255241389,0.3641897223601436,0.4188971925133457,0.24007337624854685,0.9723479446958894,orange_peel
0.6956852273079552,0.08647031356562715,0.9837378695124516,0.9763502031538713,0.9814243449873119,0.9532598924934728,0.6956852273079546,0.9837378695124515,0.30352859264751525,0.346388255218856,0.20888957934036803,0.9770599541199082,orange_peel
0.7689883856330217,0.12695070312015636,0.969404796721594,0.9495878789167689,0.9811884723780051,0.9017173227383628,0.7689883856330213,0.969404796721594,0.5800338284610599,0.6783705550322368,0.35890922448790163,0.9502759005518011,orange_peel
1.2338586552173112,0.12814142034534085,0.9775411471982477,0.9664411781629076,0.944177568692011,0.9340087624373619,1.2338586552173103,0.9775411471982477,0.3994130403568677,0.47192072562803156,0.28123365398883143,0.9672019344038688,orange_peel
0.42536868276861595,0.08386521851168702,0.9785605544788478,0.9667021145793928,0.9789453647873562,0.9345132074737866,0.42536868276861556,0.9785605544788478,0.40674879075572645,0.4748358772933581,0.26055860620116017,0.96751193502387,orange_peel
1.2287882075764165,0.187543109461219,0.9568670425274213,0.9362941706572594,0.9623806648545581,0.876646985345796,1.2287882075764152,0.9568670425274212,0.7145280862587395,0.8675783585659252,0.46891708230204815,0.9368838737677475,orange_peel
4.141160356539466,0.4280993522924552,0.9243200437128082,0.8766144118665709,0.918237384465997,0.7684611704242922,4.141160356539463,0.9243200437128082,1.2211403528519726,1.5169818445781738,0.7813412718231537,0.8798597440944882,orange_peel
13.044041642770761,0.8644444788889576,0.8979204473008101,0.8733979221144326,0.9099822275618077,0.762834933312102,13.044041642770786,0.8979204473008114,1.3655075164736923,1.7440869646943091,1.007489231182892,0.8786294291338582,orange_peel
5.595535288726829,0.7421534725881955,0.8436593878901607,0.7439053927439031,0.9722260686838765,0.5533965259792811,5.595535288726827,0.8436593878901619,2.417898583304387,3.0832917497913312,1.3518808040333177,0.7453248031496063,orange_peel
6.745753233693959,0.6420655341310687,0.8927045033185218,0.8345103266514087,0.9536625602723527,0.6964106268804864,6.745753233693968,0.8927045033185232,1.6723563369239582,2.0944207507233,1.0369819372281386,0.8367372047244095,orange_peel
11.508968826531373,1.0062621336180144,0.846505139967005,0.7852282660882668,0.9525728091072926,0.6165891276615186,11.508968826531403,0.8465051399670073,2.1208340798919014,2.727347450621723,1.370591320660133,0.7883858267716536,orange_peel
11.746699825430873,1.0523207179226828,0.8280004991469883,0.7206123686417532,0.957366888965988,0.5192870210372531,11.746699825430902,0.82800049914699,2.6372484647922567,3.3700529191183586,1.51305708234627,0.7240403543307087,orange_peel
4.289579934628623,0.4833262049336601,0.9049254106993341,0.8338792697785927,0.9358134550004925,0.6953565550577372,4.28957993462862,0.9049254106993346,1.5846147436438116,1.9669378988555053,0.9345438979539753,0.835199311023622,orange_peel
5.338783693192386,0.5724452073904153,0.8930186641065531,0.8277636404410998,0.9495130355750964,0.6851961464487781,5.338783693192386,0.8930186641065542,1.7047950493420574,2.138137308228239,1.023202995341794,0.8299089566929134,orange_peel
7.353841973308943,0.8065768084661173,0.8406147106007593,0.7289635228145792,0.9702628763215132,0.5313889223905635,7.353841973308946,0.8406147106007609,2.5293859629062276,3.186866452254332,1.3917232334444585,0.7295554591109182,orange_peel
1.5492294304901106,0.5974074018460538,0.7810777715374366,0.6018353535669394,0.8380068599821108,0.3623174669522864,1.5492294304901109,0.7810777715374368,2.475714080712768,3.192029002313663,1.5005253561727123,0.6095595472440944,sandpaper
2.5296285514446017,0.8938538502077003,0.6885598504813523,0.4670151399301772,0.8268793739643683,0.21828779965465728,2.529628551444603,0.6885598504813524,3.1520289824636216,4.19489436185442,1.8739868790146474,0.4712721456692913,sandpaper
9.671391229501213,2.21951373980873,0.41211985874576684,0.1661621639126458,0.8363590604364293,0.02771873035771163,9.671391229501209,0.4121198587457667,4.969723128000986,7.188362875643233,2.8182995718608295,0.16529281496062992,sandpaper
12.394282644034048,2.643255766980288,0.3252429149951688,0.077208602025377,0.7402773831532956,0.0059892756068087305,12.394282644034035,0.32524291499516855,5.165633524800865,7.8601669143122646,2.95738227229221,0.02577509842519685,sandpaper
18.070785977509466,3.161524612111726,0.3069726239895208,0.09995274444550488,0.6954678701135268,0.010073677870267389,18.070785977509452,0.3069726239895208,5.1524658892647714,7.88476222687102,3.2293387606270563,0.0875369094488189,sandpaper
24.35146937872002,3.4007694070075645,0.3760001930000162,0.23381608123441627,0.627571447034068,0.054952122844613635,24.351469378720008,0.3760001930000163,4.698138021550026,7.006998937959066,3.3545289430414593,0.24926181102362205,sandpaper
0.5060813402876805,0.16470720441440884,0.9451062448500667,0.9130487841669883,0.7366732077056359,0.8336674970769943,0.5060813402876806,0.9451062448500666,0.7247480411565584,0.8855086074395673,0.560500500236505,0.9165231299212598,sandpaper
1.109657875565751,0.39380371729493463,0.8618609760488007,0.7661150960549806,0.7837681125448674,0.5869958276044012,1.1096578755657511,0.8618609760488009,1.6163017183784136,2.0476114577602536,1.1198572387411492,0.7747293307086615,sandpaper
11.095870961273178,2.270764834498419,0.44544916846477856,0.24043976925638966,0.8508556956333242,0.05792260971964103,11.095870961273175,0.4454491684647788,4.821029481444777,6.917147370317116,2.867084920105197,0.24600147637795275,sandpaper
8.455573762710028,1.542123513934528,0.6244597450980744,0.490023378655413,0.5740278449228234,0.2403678548226902,8.455573762710026,0.6244597450980746,3.106193614397985,4.315368343023179,2.366906435597656,0.500369094488189,sandpaper
15.989731350556458,2.4785461406860323,0.4849397133643706,0.3448495572128711,0.5349375564201352,0.11940283856231375,15.989731350556454,0.4849397133643706,3.8711796632439253,5.599527902829675,2.9557356490304167,0.36601870078740156,sandpaper
49.75566223398074,5.105923700128653,0.28078086757184334,0.1667771371935062,0.584686033490248,0.02803063837956777,49.755662233980715,0.2807808675718434,5.285261473190282,8.090314307664217,3.8713233017965356,0.17433562992125984,sandpaper
25.284346131192276,3.4357172542470114,0.35202058624835997,0.2049206612734169,0.4376473376103809,0.04220841727686982,25.284346131192265,0.35202058624836,4.477374574661974,6.770395512728518,3.393471374944152,0.20429379921259844,sandpaper
58.42057893100164,5.787402180273117,0.21076771899408597,0.09989532590314576,0.3782699824576272,0.01013151057549516,58.420578931001614,0.21076771899408597,5.296117871385453,8.449041954495316,4.026426315407059,0.10426919291338582,sandpaper
77.76860354892584,6.624081502069251,0.2121954540273125,0.11794638434000193,0.4131139293420237,0.014053743959608402,77.76860354892584,0.21219545402731252,5.469994914227197,8.604739603408385,4.215650944672177,0.1202017716535433,sandpaper
15.131655083622675,2.6424653864932726,0.39190985086716823,0.18975839439652642,0.5796257445134857,0.03617089624741332,15.131655083622668,0.39190985086716823,4.45014609328639,6.687435572782864,3.0640092682767017,0.18522391732283464,sandpaper
9.665257818796894,1.4427120065177632,0.6792783668963157,0.5778474085421461,0.47652432327131966,0.3341589481634793,9.665257818796889,0.6792783668963159,2.6614014618853528,3.6071252963701808,2.2019566582248173,0.5961491141732284,sandpaper
48.58049602036706,4.798027088241681,0.3415294852525718,0.24423969713624943,0.5449254981488003,0.05994310712074857,48.58049602036704,0.3415294852525719,4.892779105894226,7.32112952875374,3.75634675277061,0.2559055118110236,sandpaper
7.793116000294502,0.8972304350858704,0.8285758891474531,0.7841518334897639,0.30857383988487436,0.6149637290725042,7.793116000294502,0.8285758891474531,1.5715599641586664,1.973482583568645,1.4451382748198753,0.7924458661417323,sandpaper
23.32407949190897,3.0088154004433,0.45226560245716635,0.33813992332618387,0.33131718297521356,0.11489052309311748,23.324079491908982,0.45226560245716646,3.83968531951017,5.542091179909066,3.1760711198302305,0.36521899606299213,sandpaper
60.200144997946204,5.289145207196667,0.3519100680163356,0.2735384724282095,0.3983246615968394,0.0751027212535714,60.20014499794624,0.35191006801633584,4.695439844860313,6.956153470897759,3.8379878235535494,0.28500246062992124,sandpaper
7.9289391391282775,0.9047537626325259,0.8297595565453755,0.78697443267881,0.2574186129992005,0.6193844449585052,7.928939139128278,0.8297595565453756,1.5522298332876492,1.9421950672485724,1.4417122574581098,0.7946604330708661,sandpaper
53.34768216411434,5.031717422809848,0.33420953938777964,0.24752421739508526,0.29240844443821346,0.061958692838893194,53.34768216411433,0.33420953938777964,4.591613033529894,6.819674854338428,3.8175172453930304,0.27989665354330706,sandpaper
70.74907762706151,6.069735971503192,0.27388788482662046,0.18969197341464045,0.3985108146044027,0.036222351965693615,70.7490776270615,0.2738878848266206,5.1163414743553925,7.789716532340414,4.078464539959503,0.1970964566929134,sandpaper
14.64415380002635,1.9727939338691178,0.6057550876697495,0.5047385260482242,0.36738991003003163,0.25501266713139104,14.644153800026348,0.6057550876697496,3.0319749326996646,4.182493731327182,2.5709618132964023,0.5130413385826772,sandpaper
22.261988910696587,3.0560843191998908,0.39098821386387195,0.23985528766563077,0.37496297502473486,0.05781125568121909,22.261988910696573,0.390988213863872,4.151034493902606,6.198672311417359,3.249877916331128,0.2471702755905512,sandpaper
63.080791852989975,5.465475739545232,0.33005464345784796,0.2467858650999363,0.4021392877040215,0.061200226600491965,63.08079185298996,0.33005464345784796,4.821748258793683,7.19997921646062,3.9127490436118046,0.25670521653543305,sandpaper
14.867237754006757,2.1148853821145153,0.5677101845539714,0.45383351975626657,0.3630103006854126,0.20616808436017106,14.867237754006757,0.5677101845539714,3.256843932764073,4.576869902540201,2.7025743950468892,0.46173720472440943,sandpaper
25.624186974936435,3.2069186325872656,0.43140140945437677,0.31877169544473827,0.2774602860830827,0.10216719556293825,25.62418697493645,0.431401409454377,3.9048238600362835,5.669770746092914,3.2662533577231008,0.34768700787401574,sandpaper
57.58234234046589,4.893788096169942,0.41570419448332796,0.343981219699863,0.4118142467428037,0.11848907401649716,57.58234234046593,0.41570419448332846,4.39824922872255,6.405003081264028,3.651187220863254,0.3539000984251969,sandpaper
9.691333956886664,1.4234181007424513,0.6979894447818551,0.6177607654628102,0.29004169886328346,0.3818026271256637,9.691333956886664,0.6979894447818552,2.4097549900284805,3.1959949472200346,2.130801149626714,0.6290600393700787,sandpaper
43.638408253379005,4.599299737661978,0.33083904489293614,0.23512516840836017,0.2530499546344298,0.05587401173211893,43.63840825337901,0.3308390448929362,4.483453255672486,6.69903199745479,3.722758794718629,0.2645792322834646,sandpaper
45.973566392445235,4.132672999721001,0.47563041804380685,0.4090012443104327,0.42840945359784227,0.16745749125783288,45.973566392445285,0.47563041804380723,4.014989057853384,5.693471563389883,3.3760321737476904,0.41959891732283466,sandpaper
9.036261838148679,1.3384860441595885,0.713401289683487,0.6343430983355685,0.3077612317364307,0.40253686871819017,9.036261838148675,0.713401289683487,2.3370371822720273,3.1033119247281356,2.0519787701746153,0.6430856299212598,sandpaper
21.065773776078807,3.0837397651357823,0.3776322968991911,0.2320058028692572,0.2860394800685492,0.054113554131781566,21.065773776078803,0.377632296899191,4.0827716885366865,6.1274229352919685,3.258710160221927,0.23831200787401574,sandpaper
54.2501005080135,4.935686496372991,0.3726138247359669,0.29136713418514293,0.3861535206546209,0.08512462656290196,54.25010050801352,0.37261382473596716,4.556915270634692,6.732146075014611,3.743431154384572,0.30118110236220474,sandpaper
6.862300630851264,1.0284750100750202,0.775545901766838,0.7113956005223601,0.2407555368351257,0.5061794253727769,6.862300630851261,0.7755459017668381,1.9009415802031597,2.4490424319923227,1.7278416997808033,0.7210875984251969,sandpaper
15.552002725099197,2.341697093550437,0.5179271572194899,0.4010136655784887,0.2787605584326644,0.1612191634846547,15.5520027250992,0.5179271572194901,3.4042485151356443,4.82695606723018,2.8646527666778696,0.42538139763779526,sandpaper
38.87247543245084,3.724074987212475,0.5053524939294591,0.43644675268522726,0.3875859519970743,0.19062625530257254,38.87247543245087,0.5053524939294594,3.7965612177625236,5.375690127777525,3.2215781409579316,0.4480191929133858,sandpaper
9.44753772320045,1.5942244462613928,0.6347844855166023,0.5261223092926853,0.2879040175393732,0.27701314716054365,9.447537723200448,0.6347844855166024,2.7673109664765647,3.7864563060868717,2.373067030166216,0.5372170275590551,sandpaper
32.81659794178965,3.868437068905388,0.3827000893476844,0.28390564934883517,0.24139226461491572,0.08119249716263807,32.81659794178963,0.3827000893476845,4.153612071551215,6.093067179628144,3.4885760886717803,0.31329970472440943,sandpaper
47.661287510074985,4.392614332103667,0.43644591395350385,0.3635115348358632,0.38915501692974813,0.1322870363121611,47.66128751007502,0.4364459139535042,4.2041727725507,6.0806032397579255,3.5149480558577855,0.37401574803149606,sandpaper
9.150973934760371,1.4420773529047057,0.679716104972571,0.5830626266336308,0.296857741671742,0.34012449849703447,9.150973934760371,0.679716104972571,2.55261953469017,3.458454732284401,2.2013112173901987,0.5920890748031497,sandpaper
8.620715936744375,1.4305523532922064,0.6678598098176269,0.567779756024383,0.20977407506492068,0.3226258501189438,8.620715936744375,0.6678598098176269,2.513738767807527,3.3627671544626234,2.230737959501664,0.5844611220472441,sandpaper
43.81401040536454,4.194023454453159,0.4410359243557605,0.36505362235225974,0.3579358303601301,0.13342395855918673,43.814010405364556,0.44103592435576067,4.125343020099108,5.967644609270132,3.4682726617071555,0.3754306102362205,sandpaper
3.9218195389515795,0.7221730849711698,0.8238135447597608,0.7673131327277758,0.19213620685847527,0.5888288531519181,3.9218195389515778,0.8238135447597607,1.5414414469558069,1.944767706716331,1.422179899304498,0.7757135826771654,sandpaper
12.353580168097839,2.072600934264369,0.5404239985151196,0.41611410087596445,0.2681889533508276,0.1734809251641849,12.353580168097835,0.5404239985151196,3.252176023028305,4.597272048631893,2.7333359614954804,0.4359621062992126,sandpaper
31.694414951329883,3.2919815917756847,0.5277491593901557,0.45618295284331223,0.47811502710233833,0.20820406476777623,31.694414951329904,0.527749159390156,3.699502985957341,5.189322863004866,3.077691181901868,0.46628937007874016,sandpaper
4.78137327368405,0.8680366110732219,0.7888610347601686,0.7212457393552799,0.22327557625802757,0.5202728135475057,4.781373273684047,0.7888610347601686,1.7920255660715774,2.30586181150717,1.6206274031530221,0.7303149606299213,sandpaper
26.78898851157076,3.505001302971358,0.39390126234123835,0.28533600362021744,0.27793432772500964,0.08188406791017226,26.78898851157077,0.39390126234123846,4.095175368669432,6.033801852830363,3.3714337264291343,0.31194635826771655,sandpaper
19.68533956208538,2.1628514389841285,0.6714659015307318,0.6170558300307857,0.40019246637137695,0.3808216606714909,19.685339562085375,0.671465901530732,2.7296083086263216,3.663170401458802,2.3839391110359562,0.6265378937007874,sandpaper
3.2826545692153895,0.6195089929242359,0.8466371140322563,0.7938064403719962,0.2436465378658838,0.6301671194784839,3.2826545692153886,0.8466371140322563,1.4154387914067268,1.7927292174246217,1.281595805512986,0.8007504921259843,sandpaper
10.416968634718522,1.8509096822881155,0.5663808675971705,0.4446822449682016,0.18746595789814213,0.19800003054345494,10.416968634718518,0.5663808675971705,3.0033744811118943,4.165932574455918,2.6062454800846826,0.4554625984251969,sandpaper
24.158916489707984,2.621642305784612,0.6074258354601316,0.544170297915102,0.4341360474849228,0.2962011684711938,24.15891648970798,0.6074258354601318,3.1668398620938882,4.354246436989523,2.7031513180987634,0.5538877952755905,sandpaper
1.2377978427831857,0.28570819641639283,0.9207668605451791,0.892361542134449,0.14145539399379678,0.7963182980378728,1.2377978427831855,0.920766860545179,0.7963148625062912,0.9525972302093257,0.7583245762689527,0.8968380905511811,sandpaper
12.71545309496869,2.2449210757796516,0.49929668045818043,0.3639887488466833,0.3225810056922531,0.1327808951040939,12.715453094968687,0.4992966804581805,3.5113739468715326,5.069291369261672,2.8431773263040223,0.38145915354330706,sandpaper
22.02897718686063,2.559120872147994,0.5921582315011676,0.521355730943601,0.5803922781449637,0.2718855247416184,22.028977186860622,0.592158231501168,3.357938402246179,4.638884930555864,2.734161062920755,0.5294045275590551,sandpaper
3.6474304823609653,0.846608786967574,0.764055159110951,0.6731355220602728,0.2397927768808091,0.4532297173499517,3.647430482360965,0.764055159110951,1.936873411283694,2.5368332284879695,1.7036466318066448,0.6854699803149606,sandpaper
27.363874005091773,3.568756805482365,0.38255361597890325,0.2640640090022732,0.37855791161837526,0.0701412177832453,27.36387400509176,0.3825536159789031,4.300170522602153,6.419982182193079,3.3991240456255687,0.2901082677165354,sandpaper
6.370258564735882,0.9483932522552545,0.8124991114874541,0.770278206149489,0.1923746123043376,0.5933600951444601,6.370258564735879,0.8124991114874542,1.6274049990742285,2.032312797835632,1.5216463859983025,0.7757135826771654,sandpaper
2.2731876830941165,0.5259391807846117,0.8556890288573435,0.7996279221911988,0.2742940445961072,0.6394416640447119,2.2731876830941165,0.8556890288573435,1.3523834216203947,1.7232014033190608,1.2019708150115709,0.8071481299212598,sandpaper
6.673002506161263,1.4494104417896336,0.616136690306831,0.4862591940675759,0.18255702925970846,0.23667564164037513,6.673002506161263,0.616136690306831,2.7061186001772963,3.722380069027888,2.344900915132177,0.4958169291338583,sandpaper
14.616477162641825,1.9069809233368467,0.6679554613772379,0.60383286790457,0.4346269840791886,0.36466661359597324,14.616477162641825,0.6679554613772382,2.7413990341127112,3.7380167800151307,2.3354093110378633,0.6109128937007874,sandpaper
1.1860933721867444,0.3053418919337838,0.9093731016756881,0.8727389431252546,0.2118243812178895,0.7616862156372064,1.1860933721867444,0.9093731016756883,0.9056043856055167,1.1078057246600592,0.8363342741958734,0.8776451771653543,sandpaper
6.682211583173166,1.4721478974207949,0.6155454417576651,0.4809692010263473,0.32385166921427244,0.23153022649790606,6.682211583173166,0.6155454417576651,2.8657230842581596,4.000393085248014,2.3487196664478716,0.4958169291338583,sandpaper
9.19453604532209,1.266311118559737,0.7686684274740971,0.7198097659563198,0.46094223847223137,0.5181454094438411,9.19453604532209,0.7686684274740972,2.072048458832989,2.737922679796272,1.7884395891251157,0.7252706692913385,sandpaper
4.270332528946308,1.0833064908317316,0.6865430131053878,0.5591673370822305,0.31211477943177635,0.31279826449229536,4.270332528946308,0.6865430131053878,2.435824487976968,3.316393886829382,2.019047746073606,0.5690206692913385,sandpaper
16.489897733701724,2.662614579135408,0.45493420835987525,0.3128643235589917,0.511956115344692,0.0980460523737237,16.489897733701717,0.4549342083598753,4.047165973648019,5.96911095124714,3.0421201944038065,0.3268946850393701,sandpaper
7.0176362501162535,1.0378015482593463,0.7980727922147278,0.753984612933218,0.4032524114917555,0.5685137354218606,7.017636250116251,0.7980727922147278,1.8083474285329493,2.332914054950256,1.6001628303937292,0.7589197834645669,sandpaper
2.889745494334739,0.7269820906829314,0.7937402053791345,0.7062888171660243,0.44186591599880826,0.49889219177184657,2.889745494334739,0.7937402053791345,1.8843129441188635,2.4982639538583156,1.5351004239826849,0.7147514763779528,sandpaper
3.306897344263439,0.7972294421151342,0.7759042291783929,0.6965213208718704,0.1546684497238492,0.48522013036273304,3.306897344263439,0.7759042291783927,1.7900453180692313,2.301286015401197,1.63540729699583,0.7056471456692913,sandpaper
11.791387867931984,1.6242570883579273,0.7052568812695457,0.6440154875811345,0.4813891841355165,0.41478891897267045,11.791387867931988,0.7052568812695459,2.524037979103938,3.415575244541264,2.1321250740036226,0.6510211614173228,sandpaper
1.338630872574245,0.39098973510447027,0.8776448232856916,0.8208908362029335,0.33736970928655896,0.6738780892128639,1.338630872574245,0.8776448232856916,1.200267229814242,1.5157323904745836,1.0400685598872887,0.8258489173228346,sandpaper
9.746519274288548,2.2439419097588202,0.4061395641262033,0.1746275146431848,0.6495150326179349,0.030556904997840237,9.746519274288548,0.4061395641262033,4.436918990613549,6.622028593195391,2.841316395850691,0.16621555118110237,sandpaper
11.529036886198778,1.7146071323392649,0.6723359781224851,0.5944620201214397,0.5931323924633917,0.3533979241610258,11.529036886198773,0.6723359781224854,2.849956393066792,3.9716779879042203,2.2689517716828513,0.5987942913385826,sandpaper
3.347460198826648,0.9728888715589932,0.6991541947189548,0.5578957206575799,0.4025746483499709,0.31136520046201005,3.347460198826648,0.6991541947189548,2.4396618232126546,3.329489938315862,1.9271842385608933,0.5674212598425197,sandpaper
17.485589330553672,2.832448055521112,0.42186448288583345,0.2655261844405591,0.6623293137234258,0.07061150069919248,17.485589330553662,0.42186448288583345,4.471538842694921,6.65983097783542,3.1253236031926805,0.2770669291338583,sandpaper
6.557383536642076,0.9894527132804267,0.8065443566277142,0.7605040812900652,0.5465407494190888,0.5783734681434699,6.557383536642074,0.8065443566277143,1.8414189426136924,2.442507155524549,1.546425692188432,0.7635334645669292,sandpaper
2.987398959172918,0.8735555908611816,0.7292951931119113,0.5905161227836987,0.612188912772402,0.3487602073648918,2.987398959172918,0.7292951931119114,2.4762706545527995,3.349574942999296,1.8018094916207663,0.5961491141732284,sandpaper
2.3329119666051836,0.7181092916873334,0.766946937900686,0.6556479110279995,0.2748010662249902,0.4299547502120839,2.332911966605183,0.7669469379006859,1.9161289934560557,2.5283823826964626,1.6232212584518664,0.6625861220472441,sandpaper
11.43216229791835,1.7033832934853377,0.6748277120083319,0.5987015253547184,0.5293819399821849,0.3584781665097375,11.432162297918346,0.6748277120083321,2.7733949855831392,3.8400652255110383,2.254773668767834,0.6057455708661418,sandpaper
2.6740133988080474,0.6882789976517454,0.7983092812533032,0.6915575101562335,0.8996345230568997,0.4783035919302308,2.674013398808048,0.7983092812533032,2.3445199833815726,3.0416583119418785,1.5075368389558523,0.6988804133858267,sponge
6.232043819556392,1.5856554720921947,0.5393199505211966,0.29024121575474676,0.9159067346125833,0.08435605576095524,6.23204381955639,0.5393199505211965,4.510770119435159,6.207942076471911,2.472285592153579,0.2947834645669291,sponge
10.787369848177198,1.8351375530876053,0.5909255910558517,0.4463155105259303,0.9215930300562281,0.19933517740746587,10.787369848177196,0.5909255910558523,4.087135130891936,5.592401953832205,2.5508011510561213,0.4594611220472441,sponge
12.784697788145586,2.2755602776830557,0.4697002671740754,0.28180385288398524,0.7352304930266589,0.07956848093600512,12.784697788145577,0.4697002671740754,4.255876020880803,6.157455697811687,2.8957816999463217,0.28192667322834647,sponge
32.29948372787373,3.977765811000375,0.31399658640187034,0.15652968643191253,0.7419788661259743,0.024620842095764803,32.29948372787371,0.3139965864018703,5.31827433308796,8.044103901471116,3.581477381851293,0.16166338582677164,sponge
30.666685759152763,3.497407740909232,0.43255176984984334,0.3159388773832183,0.7609011565729901,0.10001885470402214,30.66668575915277,0.4325517698498437,4.644472584673671,6.685103052160208,3.3517222362630434,0.328494094488189,sponge
2.5440300177475357,0.6365618121861243,0.8154049795118353,0.7209893612975494,0.9084940349354378,0.5198764535080818,2.5440300177475352,0.8154049795118355,2.1549748604192365,2.7787975353093093,1.4206741317395615,0.7276697834645669,sponge
3.7820033257254027,1.4034407404752316,0.49821771041231283,0.11591086432107467,0.8975461419045114,0.013506866231002699,3.7820033257254018,0.4982177104123129,4.9429188746909025,6.809507355632222,2.1995924210127176,0.03709399606299212,sponge
13.678503442944383,2.1460408077066155,0.5560018764678853,0.4206877860058974,0.9012233015972184,0.17711893124957892,13.678503442944386,0.5560018764678858,4.224570989945358,5.860542795221825,2.722885223469809,0.43214812992125984,sponge
10.77577957890291,1.5547556759176022,0.6885812467823568,0.6003122710851809,0.7679312304300782,0.3604891966283996,10.775779578902908,0.6885812467823571,2.909748831718572,3.936947205580596,2.201890379065774,0.609867125984252,sponge
18.809371778899823,2.6535652250991992,0.4752543502379597,0.32902099070013613,0.7375218635334937,0.10847757765064354,18.80937177889981,0.47525435023796003,4.260037638378679,6.1107652958626195,3.0470378042772985,0.3436884842519685,sponge
46.5344359829344,4.0272446951143905,0.4696270671905973,0.37996530737856504,0.753562021082789,0.1445709803086352,46.53443598293446,0.4696270671905981,4.552165832116796,6.431496690850446,3.4036755635583034,0.39456200787401574,sponge
19.923942316634623,2.424556505363012,0.5708810193015875,0.4677285745481461,0.7188032255951848,0.21891046432892547,19.923942316634637,0.5708810193015879,3.691641010278915,5.151222620494368,2.791042535104541,0.4761318897637795,sponge
40.034098857260204,4.1050185225370495,0.37850004291157785,0.2565560965637584,0.6995733344236252,0.06604413624895418,40.03409885726022,0.37850004291157796,4.9252993541583665,7.237949212081347,3.5868189099354755,0.27417568897637795,sponge
49.52590963385046,4.268796330561409,0.44384247914387237,0.3534151197196531,0.7316899734059255,0.12509750263133562,49.52590963385052,0.4438424791438729,4.669667367093165,6.65549902370227,3.5085766837675836,0.36792568897637795,sponge
11.817712369799743,1.9505791199082396,0.5613571313930144,0.4182086478682234,0.7116240953197072,0.1750308612100657,11.81771236979974,0.5613571313930146,3.641010584596845,5.106701958848339,2.660223534132718,0.4223056102362205,sponge
13.10648509187644,2.6151958671104856,0.34477258462441274,0.10315809043102916,0.6768759716824073,0.010673749994500624,13.106485091876436,0.34477258462441257,4.795067774917775,7.320291839619326,2.990952577560889,0.06028543307086614,sponge
48.44503531585185,4.372864265259784,0.41105118848394023,0.31472754336972714,0.7025935985564806,0.09926064755683828,48.44503531585188,0.4110511884839405,4.774668018698251,6.862399077211147,3.5940260826751107,0.3312007874015748,sponge
7.803814775598303,1.1888578269344041,0.7518487343147683,0.6776357677572353,0.7374623278254485,0.4592862011676863,7.803814775598302,0.7518487343147684,2.4016890171091934,3.1942697586027036,1.8628743862165196,0.6862081692913385,sponge
15.404551898947554,2.464688870783991,0.4677495779902945,0.30372816809391556,0.7275488925488236,0.09250084258975387,15.404551898947549,0.4677495779902946,4.240383058065747,6.122286982533863,2.978849190552939,0.3187130905511811,sponge
36.8605915102455,3.530202294779592,0.503645669699514,0.41701508120185765,0.7503512971470789,0.17408749771412124,36.86059151024552,0.5036456696995144,4.256954629809928,5.9698314823927685,3.2116767933670816,0.43017962598425197,sponge
9.453909931257366,1.3028052149854297,0.7434282987894063,0.6734248833112739,0.6623128370427704,0.4535855345828714,9.453909931257364,0.7434282987894066,2.3845111094006337,3.1691056714863937,1.9286170157684919,0.6810408464566929,sponge
32.6493708924918,3.742052601292703,0.38126155560289676,0.2512576819035076,0.6660771699374561,0.06340775930998505,32.64937089249179,0.38126155560289704,4.740861506053927,6.997106275988262,3.4856085784919486,0.2702386811023622,sponge
43.32208664807951,4.040918023242296,0.4406630325804532,0.34640855800484655,0.6988461280750475,0.12022119325396757,43.32208664807955,0.44066303258045375,4.556037453218964,6.52380778599055,3.468487010361625,0.36072834645669294,sponge
7.184736877286257,1.2670851513578028,0.6994605830198621,0.5933311600899146,0.6907631955040672,0.35215935934382736,7.184736877286255,0.6994605830198621,2.6991869459920643,3.6385289651879256,2.082303536899016,0.6002706692913385,sponge
10.868898679203612,2.4165070244203006,0.3552093819263237,0.1027823473227727,0.6593288807987897,0.01059117978839457,10.868898679203607,0.35520938192632356,4.696482910198316,7.174357515509124,2.8712454463598065,0.04546013779527559,sponge
43.31592986623468,4.115044620714244,0.4262327251369114,0.3318643213335305,0.702889476300173,0.11037839547776633,43.31592986623473,0.4262327251369118,4.645968332357889,6.6627188897493115,3.5020602422700167,0.34916338582677164,sponge
11.349949891306032,1.8029738989165476,0.6126632455751021,0.4948261993267251,0.6947068305543251,0.24505593170887507,11.349949891306032,0.6126632455751023,3.2877906659642173,4.540815664486241,2.5032613710453657,0.5031988188976378,sponge
19.69418329852285,3.182391407751567,0.32081546069954125,0.11818059739952771,0.6792356888091259,0.01405070384482907,19.694183298522844,0.32081546069954114,4.9721840503950006,7.614388711688411,3.2722556419265283,0.10660679133858268,sponge
52.094874357717394,4.33548594050313,0.4601444820017889,0.3779669713569615,0.7002731022092756,0.1431067183154861,52.094874357717465,0.4601444820017895,4.513960286272858,6.391749991564375,3.4807099656033653,0.39468503937007876,sponge
12.912161687604627,1.8751338088613676,0.61979206783185,0.5142334415594718,0.6383041928605462,0.26461714929521507,12.912161687604627,0.6197920678318504,3.1980289125172945,4.419933047503336,2.5067441103561174,0.5233759842519685,sponge
30.71175004068759,3.7073724928699874,0.36462280944889297,0.2233376716643503,0.6355440141440457,0.05015105475350025,30.711750040687583,0.36462280944889297,4.774610788639761,7.141004043460452,3.485538336836989,0.2407111220472441,sponge
44.145034153349506,4.194863604570959,0.41671944172776026,0.3218835775615054,0.6605568788920267,0.10381705844933622,44.14503415334956,0.4167194417277606,4.6182562258932744,6.668262522540111,3.5420773806313672,0.33372293307086615,sponge
12.21726865719357,2.165422264438279,0.487179716538068,0.30689520994323644,0.6348755774108136,0.09434127426343425,12.217268657193564,0.48717971653806813,3.9397154065973976,5.698673224955597,2.836727056020938,0.30358021653543305,sponge
8.910763657464818,2.0212401284177566,0.4385261934482175,0.1934970502581632,0.6420995507527181,0.037545455197808254,8.910763657464816,0.43852619344821764,4.155723907945743,6.140444773041875,2.72459234153663,0.1720595472440945,sponge
61.343291901427534,5.129243738956231,0.3688029734511076,0.2815904220453551,0.650318957774195,0.07951940913674344,61.34329190142755,0.3688029734511079,4.958188254194596,7.207763715379048,3.809288549836567,0.29576771653543305,sponge
10.949298308752873,1.7460873320184143,0.6200003781163573,0.5054548289913602,0.6383847956624682,0.25568223524210276,10.94929830875287,0.6200003781163574,3.1583428018870845,4.359158134171192,2.4666434730548117,0.514763779527559,sponge
15.229018891631533,2.4244282668252835,0.4775543668061948,0.3152557381820462,0.6452226644428809,0.09962295975846262,15.229018891631533,0.4775543668061949,4.0471853676567475,5.8666201970753,2.957382059981721,0.328125,sponge
45.225647150513026,3.932244399645051,0.4911519984465379,0.41379190768431984,0.6628672548681753,0.17147126278875896,45.225647150513055,0.4911519984465385,4.204811134143016,5.908787221419119,3.3243882788659542,0.4297490157480315,sponge
12.315990655418808,1.9880824136648276,0.5654968456798339,0.4321287278608604,0.5918519053140363,0.1869505582987092,12.315990655418812,0.5654968456798342,3.4583715377263062,4.874547662314788,2.669004655902531,0.4390994094488189,sponge
32.806994340551185,3.9520467790935587,0.33099349200691563,0.18797146641891954,0.6238213516117848,0.03553654742584018,32.806994340551185,0.33099349200691575,4.949678070196436,7.502067328978823,3.5687878293895534,0.20023375984251968,sponge
48.32390015170654,4.397619025706805,0.41448376922499797,0.32543590237697073,0.6244841376239822,0.10614344294164652,48.32390015170655,0.4144837692249983,4.589753404098968,6.623771258193927,3.5873185301618404,0.3371678149606299,sponge
11.37019511148398,2.0810909551506604,0.49919472688948313,0.3171674995761111,0.6047760894702766,0.10076899137685034,11.370195111483973,0.4991947268894832,3.8451774436932715,5.560181075622817,2.7889140617731236,0.3152066929133858,sponge
9.06239513260277,2.1156450047275097,0.40789597729582683,0.14837235008669517,0.6242680293986207,0.022070385038991436,9.062395132602763,0.4078959772958267,4.301668874121617,6.467659398996537,2.7479916353978773,0.10691437007874016,sponge
51.00937122186743,4.578302523792551,0.3955543408122507,0.30555627245544414,0.6238511514621985,0.09362950050274411,51.00937122186745,0.3955543408122509,4.698727435634622,6.812743727927419,3.6593779531585264,0.32166584645669294,sponge
10.115862852819461,1.5912989365041235,0.6600584023106917,0.5598309847181792,0.5930077050049305,0.3136292840634207,10.115862852819456,0.6600584023106917,2.871475760475982,3.912180893397774,2.3057298219154583,0.5733882874015748,sponge
20.941262874713257,3.1978980989211987,0.34301143479473606,0.1533090034901601,0.6569253992103803,0.023623160175525522,20.941262874713253,0.34301143479473617,4.841312107954265,7.364257491399128,3.299847796603431,0.15120570866141733,sponge
56.80198988913596,4.478426257633764,0.4758004883684274,0.4049379690205599,0.6249151848009225,0.1642573417498089,56.801989889136024,0.47580048836842803,4.304262616309257,6.0603485682044616,3.4562968816840693,0.4245816929133858,sponge
10.042417045771595,1.480900086800174,0.6994086206185998,0.6175932205928076,0.5670347587518473,0.3815861843396583,10.042417045771591,0.6994086206185999,2.5934401338997075,3.4815786024027404,2.1468666206680336,0.6281373031496063,sponge
37.31964381897514,4.130858527342055,0.3502542841308702,0.22339749848502563,0.5823875910694718,0.05020469693354365,37.31964381897514,0.3502542841308705,4.809548769781322,7.239359911053511,3.61256921601137,0.24243356299212598,sponge
51.850124387748764,4.423249174623349,0.44550999491372556,0.36664846943361434,0.5864816112317968,0.1347266179840388,51.85012438774878,0.44550999491372606,4.38404460081785,6.25046690912215,3.5254393815157226,0.3813976377952756,sponge
8.497603186612624,1.4976007647327798,0.6433238951296857,0.5166168638244273,0.5498189054652005,0.26705719851109466,8.497603186612624,0.6433238951296858,2.9498054052993887,4.070202874295115,2.3214129737331524,0.5255905511811023,sponge
7.83144236991599,1.783655532154814,0.5020089750921841,0.2848068535074132,0.5817488987166599,0.08129140291630571,7.83144236991599,0.5020089750921842,3.7158193183070254,5.386430257715497,2.6090736130840324,0.2779281496062992,sponge
58.232344859220916,4.8481957237351985,0.4041680103304614,0.3204887709443103,0.5867326407460665,0.10297059133474323,58.23234485922097,0.40416801033046174,4.633164234980088,6.679798450808409,3.697069769627253,0.33526082677165353,sponge
8.594178914920331,1.4725363669477334,0.6643991461013801,0.5578666331397313,0.5621734746283784,0.31142148520193624,8.594178914920331,0.6643991461013802,2.7859010076380386,3.791902613888311,2.25712101529959,0.5687130905511811,sponge
17.8080032956941,2.9059334603044213,0.3705397011005732,0.1745474304947599,0.6561966665030372,0.030612022922842957,17.808003295694093,0.3705397011005732,4.651861019580352,7.010221149107403,3.1839683722179988,0.1735974409448819,sponge
61.3317254876697,4.777433480648212,0.4480555246155268,0.37767655937707095,0.543137245801599,0.14296653041116592,61.33172548766972,0.4480555246155273,4.348337783565737,6.148427637484264,3.58017506214153,0.3972071850393701,sponge
12.617941794477352,2.3753675202662916,0.42383732349759656,0.21085779683736014,0.5862407677215051,0.04457825867681066,12.617941794477339,0.42383732349759645,4.222079877787941,6.305358605319812,2.944450161191909,0.1969119094488189,sponge
33.664095558659874,3.785773466078184,0.3991021768086404,0.2818373617918059,0.5486865036674428,0.07977304398825197,33.66409555865987,0.39910217680864046,4.489034171573771,6.666149512562541,3.4687011682112967,0.304564468503937,sponge
57.42286470119809,4.698671041873333,0.4326550161545397,0.3573459327962915,0.5195821195800708,0.1280077357021658,57.42286470119815,0.43265501615454033,4.380328992980234,6.247800224384887,3.6041372622934307,0.3734621062992126,sponge
6.327313549158348,1.2481129923197345,0.6815611733576431,0.5582358607032835,0.5021269179140254,0.3118013854370691,6.327313549158349,0.6815611733576431,2.658954137877358,3.6275703488061612,2.1239489617115836,0.5692052165354331,sponge
6.155784999069997,1.435263393964288,0.5921279767680643,0.4072362189160574,0.5325730304681529,0.16609146681332784,6.155784999069998,0.5921279767680643,3.167862874320236,4.457154885383426,2.3663590935045358,0.4125861220472441,sponge
61.65662478590578,5.24536803370482,0.3422829677336803,0.252064931922736,0.538516056071154,0.06381061777198463,61.656624785905834,0.34228296773368055,4.861535600906784,7.169825935483583,3.8785479352040895,0.26636318897637795,sponge
6.55096204333034,1.3469966510245523,0.6518559140327281,0.5218438969685497,0.43636331241397697,0.27255639820870964,6.550962043330337,0.6518559140327281,2.7361537314474575,3.752888483319193,2.236146874753895,0.5313115157480315,sponge
17.921080017941286,2.7305955354098224,0.4328967031024033,0.26957640204577576,0.609092427460961,0.07292156311579673,17.921080017941286,0.43289670310240325,4.2284041264385195,6.231612848866534,3.1122500591222555,0.2797736220472441,sponge
57.54744583707915,4.645557884865768,0.43654989676773515,0.3582088501969194,0.5018803633613051,0.12863567889017843,57.54744583707918,0.43654989676773565,4.34169097234577,6.2202226778509795,3.595452823228425,0.3767224409448819,sponge
8.379875607407467,1.7072260902334309,0.5593766526465489,0.3808131780491153,0.5055627082637315,0.14518686135290476,8.379875607407465,0.5593766526465489,3.410451886442966,4.879725947410082,2.5535209413555346,0.3812746062992126,sponge
29.93943726168703,3.5724786293322617,0.3943476111631824,0.256794485821711,0.5494235626457824,0.06618940538355773,29.939437261687026,0.3943476111631824,4.531723452793274,6.792347942303807,3.424705203642655,0.2738681102362205,sponge
60.37160052835728,5.087285639415028,0.35907336313988997,0.26793734389860796,0.45841356708169867,0.07203403616351657,60.371600528357305,0.35907336313989024,4.683953045130838,6.902316324186608,3.830298008695355,0.27860482283464566,sponge
6.091317463884929,1.410610352470705,0.6061666025888743,0.42326382177246485,0.5197669920329235,0.1792948516422505,6.091317463884927,0.6061666025888744,3.185921876298983,4.495531005751452,2.3390377089678474,0.4266732283464567,sponge
3.2250335672546337,0.7652452492404984,0.7808683421925864,0.6845892309401364,0.43307799406528535,0.4687934916747484,3.2250335672546346,0.7808683421925864,1.938922916153599,2.5480107133480154,1.6162565573317154,0.695189468503937,sponge
70.31917009927763,5.606351767391036,0.332950098376466,0.24709685293531458,0.4678218170243254,0.06130531419934611,70.3191700992777,0.3329500983764664,4.859388404287735,7.191193870354663,3.9630684001630136,0.2601500984251969,sponge
6.8977900104237735,1.4472171874031252,0.619197117334453,0.47215767157940847,0.47539188366596996,0.2231278652859252,6.897790010423771,0.619197117334453,2.9530494461107817,4.103968183539193,2.345205384571837,0.476316437007874,sponge
16.461303203856417,2.4680590376805767,0.4901900547704923,0.3385021079650209,0.6022542491019918,0.11479053704818828,16.46130320385641,0.4901900547704924,3.9566572810264127,5.745480362760333,2.962038137675965,0.35223917322834647,sponge
64.55835919093713,5.061241712327178,0.4018607658146486,0.3212050477748447,0.4270645399842788,0.10345405780444808,64.55835919093713,0.40186076581464886,4.465781968864954,6.4572234874689745,3.748369566389708,0.3374753937007874,sponge
8.033789098828198,1.5567746760493524,0.6109152656405632,0.45632249263199576,0.5620239258372112,0.208364859537088,8.033789098828198,0.6109152656405633,3.1748789818028875,4.4573755523848355,2.4128737256631636,0.4597071850393701,sponge
27.83564166737711,3.2842837677862864,0.4421193744367198,0.3120695084536227,0.5866733055915789,0.09763219145074237,27.835641667377082,0.4421193744367197,4.332717336840098,6.395043257558095,3.286969381332098,0.3315083661417323,sponge
68.0957392110096,5.385071992800239,0.3608603268454709,0.27611264058097673,0.4297562309230092,0.07647008344117716,68.09573921100967,0.36086032684547115,4.683188697904627,6.9010195416352085,3.882915219021986,0.28666338582677164,sponge
4.464138740777483,1.0512835478795957,0.7040329789292255,0.5669306565669476,0.5288133085857624,0.32150523861298164,4.464138740777482,0.7040329789292255,2.5749694745034923,3.5111219992154283,1.9745608684182987,0.5729576771653543,sponge
5.671317362165974,1.3536846722130944,0.613813459476112,0.4408649872957503,0.48757004591561187,0.19461387503002625,5.671317362165976,0.6138134594761121,2.9877014233162544,4.176080921743127,2.2977988239584435,0.44814222440944884,sponge
72.19084388950023,5.544064166253335,0.36110619102949937,0.27947645606491683,0.42018350757763945,0.07836524368097633,72.19084388950029,0.36110619102949965,4.683992083444437,6.850413016573882,3.910014288652788,0.29429133858267714,sponge
0.6753826085777171,0.32523230671461345,0.8700294234896018,0.7577320639946898,0.7308071012196902,0.5742225605684654,0.675382608577717,0.8700294234896018,1.544052350522744,1.9336596358759326,1.035807901110688,0.7650713582677166,styrofoam
1.8471497138306776,0.7860851620140741,0.7032654419571407,0.46961529514060596,0.7704788292251097,0.2206963071415413,1.8471497138306776,0.7032654419571407,2.9478660564365153,3.9085540623911177,1.750784941554598,0.4737942913385827,styrofoam
6.768019754789508,1.4546929250108502,0.6336879276342351,0.5062381389000237,0.7031569609574002,0.25651217330983134,6.76801975478951,0.6336879276342351,3.1672835108012505,4.357405587350682,2.285433292546914,0.5202386811023622,styrofoam
15.493143415974323,2.99595594503689,0.30644243216431855,0.11271924953253849,0.40126133300853484,0.012763158053467567,15.493143415974332,0.3064424321643186,4.488815600811972,7.066502254228839,3.14236117309948,0.08673720472440945,styrofoam
41.049131344356475,5.007847496163741,0.1963357906083858,0.06384193387491863,0.3315111236322375,0.004088961819046105,41.04913134435644,0.19633579060838574,5.151714455375787,8.494479846779369,3.7943907534006844,0.0375861220472441,styrofoam
28.833154275683547,3.525951653465807,0.42856131248911944,0.3376456882339822,0.2955981934372094,0.11456150379974278,28.833154275683555,0.42856131248911955,3.955077672326884,5.664480422473486,3.327686640026961,0.36601870078740156,styrofoam
0.08949766337032673,0.04146040323330647,0.9835654055071107,0.9706640517665188,0.6474418040877676,0.942190859246319,0.08949766337032675,0.9835654055071107,0.26432236857439306,0.30753911074528195,0.21253675452781054,0.9726254921259843,styrofoam
0.9278251954941409,0.5026416654395809,0.7889938070544422,0.5670904738131154,0.737151692369967,0.32174075770461275,0.927825195494141,0.7889938070544422,2.335776689842848,2.9868569322145344,1.3716047718110267,0.5712352362204725,styrofoam
3.834152453461157,0.9545312645312791,0.7336239041253849,0.6255105929203415,0.7116603471674895,0.3914163874854234,3.834152453461157,0.7336239041253848,2.487324184767843,3.3161973172531156,1.8209983703288655,0.6352116141732284,styrofoam
0.8991325795151592,0.21929976672453347,0.9388022128297522,0.91733666793922,0.16977099828045172,0.8415139222036242,0.899132579515159,0.9388022128297522,0.6459039631505946,0.7647362238348194,0.6143261037468544,0.9210752952755905,styrofoam
8.939826215589932,1.6295395715791436,0.6328821318451878,0.541637523386159,0.252088542226355,0.2937991914923841,8.939826215589932,0.6328821318451878,2.698240411510011,3.6292023725164415,2.3630238532681,0.5650836614173228,styrofoam
37.414925657976305,3.896423706909914,0.4492168440562163,0.3771364259106538,0.29445924448965577,0.14259975299512812,37.41492565797632,0.4492168440562166,3.9264929842317375,5.524535385545925,3.3768964697328148,0.38988681102362205,styrofoam
9.288413799483848,1.7350767396847298,0.5983046357107558,0.48894543028855275,0.29420636045180876,0.2392655668142384,9.28841379948385,0.5983046357107558,2.926209716728402,4.025777636149861,2.48950852722023,0.49593996062992124,styrofoam
31.995009958769934,3.98434617962986,0.3381506389872453,0.22814646746219905,0.2467504975186538,0.05237897150167042,31.995009958769916,0.3381506389872453,4.330026472151012,6.488176049923738,3.5580946369020325,0.2375738188976378,styrofoam
63.06095253987387,5.721894447695148,0.2912195727525706,0.2152536085653557,0.22271907459180987,0.046550715428713293,63.06095253987384,0.2912195727525707,4.73041692776077,7.058799782988643,3.98827182703834,0.22354822834645668,styrofoam
3.6214140436093385,0.7805395415478332,0.8003559426298849,0.7388492397446016,0.2933940092684727,0.5459682735214177,3.621414043609337,0.800355942629885,1.7030486183478364,2.17613880654406,1.5257699017091857,0.7456938976377953,styrofoam
7.762777232585716,1.6829416588520676,0.5726307754671571,0.44325682462771415,0.298368986979552,0.1971367176033335,7.762777232585716,0.5726307754671572,3.022055654973521,4.207802613684261,2.4945049031546827,0.47557824803149606,styrofoam
32.80211134641017,3.5241805327360662,0.4897395280175493,0.4215880914763488,0.281033370668194,0.17812795737620774,32.8021113464102,0.48973952801754944,3.686948347100078,5.119149174936325,3.202406915750839,0.43356299212598426,styrofoam
3.571271443324137,0.8047748087683675,0.7865402292270434,0.7159299429672432,0.21068842244923186,0.5126046320078541,3.571271443324137,0.7865402292270434,1.7645410163015742,2.2645724163657297,1.5958289499433975,0.7210260826771654,styrofoam
14.964493909456571,2.476105127991506,0.48430194543520166,0.37109624226324156,0.21887868805016042,0.13814001181136432,14.96449390945657,0.4843019454352018,3.463782398498957,4.912845365418201,2.9403114423843983,0.39265501968503935,styrofoam
38.68385240676729,3.928390341155683,0.4577618203555071,0.39093554728074914,0.19009450106246203,0.15308261440142407,38.683852406767315,0.4577618203555073,3.797651363944948,5.270106058126173,3.3657659339765296,0.39954478346456695,styrofoam
7.222852906643315,1.4744113863227728,0.6405476276634053,0.5385311887423965,0.23361939382526606,0.29010603411352764,7.222852906643315,0.6405476276634053,2.636247485104354,3.5759069150305667,2.29022722728192,0.5426304133858267,styrofoam
32.090484700500674,4.195170698935149,0.28808242576722864,0.17299836040729807,0.20741737245542385,0.030100183355677622,32.09048470050065,0.2880824257672286,4.476464732458602,6.8900506228330425,3.6160159687378064,0.1735974409448819,styrofoam
54.29118067611133,5.10346416005332,0.3425912180841998,0.26794161402734984,0.20167671263972736,0.07200012357823912,54.29118067611135,0.34259121808419996,4.434126608159589,6.465395542405183,3.814100150640508,0.27140748031496065,styrofoam
3.4048642003534018,0.7649088501302003,0.7982175950219418,0.7349311954505782,0.1956249389021557,0.5401681023578255,3.404864200353401,0.7982175950219418,1.6688254609875053,2.12092261440755,1.5275380437792676,0.7394192913385826,styrofoam
25.892985606283734,3.968533726129955,0.23757940013584036,0.08588623803371231,0.23426517943736358,0.007401509441619287,25.892985606283716,0.2375794001358401,4.6586332119704315,7.611809385554384,3.478964035490555,0.055056594488188976,styrofoam
51.22757230280081,4.757287557543867,0.39727102041226103,0.3302789641651453,0.2019290639396984,0.10942325226801108,51.22757230280085,0.39727102041226126,4.179293176511986,5.939763275229017,3.6497933828348166,0.3422736220472441,styrofoam
1.7603347667632834,0.49031405484685964,0.8522995528397961,0.795270223095622,0.1956752514261857,0.6324732833837144,1.7603347667632836,0.8522995528397961,1.3077332746307881,1.6367122998284602,1.1959424651916817,0.7983513779527559,styrofoam
14.16188644096038,2.6475007168764337,0.40101517683904375,0.2524766167401357,0.24093544208323958,0.06400709225914268,14.161886440960382,0.40101517683904375,3.82425502084522,5.698910481340947,3.053727063479156,0.2593503937007874,styrofoam
17.891268493474477,2.095775660301321,0.6641638577629077,0.6121953163540576,0.14865694384547648,0.3748530763618151,17.891268493474485,0.6641638577629079,2.5729215141481596,3.3189360250486297,2.3909769877047617,0.618048720472441,styrofoam
7.5943627356004715,1.7225295856841714,0.5494398787737904,0.40541820648308724,0.28690794261282127,0.16445879189114773,7.5943627356004715,0.5494398787737904,3.127748763376813,4.43379175314047,2.548491831656415,0.4007750984251969,styrofoam
25.727741107825967,3.706856753557258,0.32019982157359683,0.19284805589633752,0.2558321363704049,0.037347995065392575,25.727741107825967,0.32019982157359683,4.346738490672823,6.638403648656861,3.4622744201339573,0.19389763779527558,styrofoam
27.026588850052704,3.2371151148552304,0.4813374356128626,0.40279562534902374,0.1800708958910795,0.16240774005169298,27.026588850052704,0.48133743561286263,3.5861026443379216,4.9971954953288815,3.169464331747298,0.4092642716535433,styrofoam
5.256183785805072,1.1906697563395123,0.6879555969828184,0.5907130083193448,0.2360969509945941,0.3490174919703686,5.256183785805073,0.6879555969828184,2.3520317811524065,3.137429447491165,2.0552794423462237,0.5953494094488189,styrofoam
11.276623967310435,2.323759077205655,0.4343351375740008,0.27262960534289926,0.27831352247438257,0.07466529634908019,11.276623967310433,0.4343351375740008,3.6929755673460165,5.450211836366906,2.8976253765801436,0.28475639763779526,styrofoam
32.41913452186277,3.5508719494001495,0.47682914991593023,0.40401104276674865,0.20294314622876486,0.16349426437594528,32.419134521862794,0.4768291499159304,3.684544259516513,5.125169322954509,3.2475308815262034,0.4156619094488189,styrofoam
0.4328822017019035,0.15012143305536613,0.9485315746895314,0.9241716825295351,0.13101750004237525,0.854095430376621,0.4328822017019034,0.9485315746895314,0.5586569895258388,0.6593395367930603,0.5312440173351675,0.9257504921259843,styrofoam
5.602063829127658,1.3435259761144522,0.6319935082889729,0.5045008665425865,0.28271437347005157,0.2547492497958018,5.602063829127658,0.6319935082889729,2.6936110475497985,3.706263100361558,2.2478014474275287,0.5209768700787402,styrofoam
7.3554670546841106,1.0917725351075704,0.7858833797841048,0.7410061912308853,0.15591424975200652,0.549127175789113,7.35546705468411,0.7858833797841048,1.7806528894931308,2.2214655593343378,1.6751054498955091,0.7483390748031497,styrofoam
0.5189647723045446,0.18124840155930314,0.9368368888000674,0.9042829935539215,0.13649194589136787,0.817730260232634,0.5189647723045446,0.9368368888000674,0.6669556798074157,0.7987155503930191,0.6279609327362076,0.905757874015748,styrofoam
12.23946385392771,2.372101252015004,0.44871083663112554,0.2978287379252172,0.3219101775789682,0.08891115782522463,12.239463853927706,0.44871083663112554,3.7141729909435774,5.44581474727202,2.9226045523468107,0.3051181102362205,styrofoam
14.293718200717656,2.040473123914998,0.6169726602596479,0.5417776683828748,0.1861901395733235,0.29363811885347996,14.293718200717652,0.616972660259648,2.817230662202359,3.7711428967571408,2.5373058692928017,0.5499507874015748,styrofoam
0.4549185231182963,0.15059503165881333,0.9497535832469081,0.9272777458950938,0.0865257618346188,0.859845291277543,0.4549185231182963,0.9497535832469081,0.5413432544629093,0.635469576469581,0.5209651958615311,0.9280265748031497,styrofoam
13.770953741126236,2.8276024794237102,0.3198334726148228,0.13010285105256214,0.2713458499437909,0.01698322866316222,13.770953741126233,0.3198334726148228,4.199096039241958,6.5997313305524115,3.0683485476157033,0.10094734251968504,styrofoam
28.229884834769656,3.341506370512741,0.47327872473422244,0.39310934553089383,0.22015794863122012,0.15480592195961806,28.22988483476967,0.47327872473422267,3.6787417869261962,5.1460936459688895,3.2070141866138178,0.40907972440944884,styrofoam
0.11974900121675246,0.042015134811519625,0.9849862430724692,0.976965772349493,0.06320822849614198,0.9544622287998016,0.11974900121675244,0.9849862430724692,0.20206493461729544,0.22836464597514197,0.1977275287401962,0.977423720472441,styrofoam
4.26984452015779,1.1671863617164735,0.6524466394975397,0.5091167427799722,0.3159962427091568,0.25936639531429423,4.26984452015779,0.6524466394975398,2.607762508816541,3.5850256182183826,2.119184295228393,0.5201156496062992,styrofoam
4.782459850075952,0.7310569035200571,0.850810242616683,0.8170803926676371,0.16093514616879348,0.6676373804348825,4.78245985007595,0.850810242616683,1.3360264185983624,1.6281392242058734,1.2684285429598767,0.8222810039370079,styrofoam
0.14459591419182838,0.05302463729927459,0.9807115789168518,0.9693511248384343,0.0679658674326585,0.9396419320937641,0.14459591419182838,0.9807115789168518,0.25412390955180914,0.2907830140396052,0.24547077884457533,0.9701033464566929,styrofoam
13.077341279682564,2.4841638120776244,0.42824099860683074,0.2625659512970795,0.4333568579953107,0.069125346824298,13.07734127968256,0.4282409986068305,3.9861251034311977,5.89499760035188,2.9819079585198938,0.26993110236220474,styrofoam
3.762994717395686,0.647804299514849,0.8549472599427126,0.818375495080928,0.1475108550198239,0.6697526570351044,3.7629947173956846,0.8549472599427125,1.293767808004657,1.5794789585310225,1.2269389580434193,0.8227731299212598,styrofoam
2.0819560506308514,0.6586460868234237,0.7885241993413346,0.6975855090966087,0.2694116423833486,0.48666532122972944,2.0819560506308514,0.7885241993413346,1.7521332564921657,2.2747823035429593,1.513382761720141,0.702263779527559,styrofoam
5.2338076746466005,1.484991247326245,0.5494271829870584,0.3670804147724501,0.27255732194351145,0.1349407614893101,5.2338076746466,0.5494271829870583,3.062764224248683,4.37645087668791,2.3954969206100345,0.3684793307086614,styrofoam
17.695596949787642,2.2597181561550617,0.6139284099682973,0.5478371118643901,0.21762294826776274,0.3002274600026661,17.69559694978765,0.6139284099682975,2.889880402419146,3.8597174524690487,2.596831013274328,0.5564099409448819,styrofoam
0.21504076992528987,0.08952466733058466,0.9660603279583428,0.9463727591663845,0.13503197951424756,0.8956221309730927,0.21504076992528984,0.9660603279583426,0.4049216743942091,0.4746227605055839,0.38289996970312556,0.9475885826771654,styrofoam
3.538788101013702,1.0365321199392397,0.6790159280708596,0.5320248180679469,0.43564276409652614,0.2832081413717326,3.538788101013702,0.6790159280708596,2.5765962367337067,3.522317595272364,1.9937938127823873,0.5455216535433071,styrofoam
1.3731642150784302,0.23459563325376653,0.9448823951196998,0.9282655649716001,0.10355315158948519,0.8616790581677025,1.3731642150784302,0.9448823951196998,0.5925700209627098,0.6898169722398091,0.5749223328241242,0.930425688976378,styrofoam
0.8393639756029513,0.3170969701314403,0.8865577832976385,0.8208552130024371,0.3982553820256668,0.6738165273377916,0.8393639756029512,0.8865577832976383,1.1554767496521332,1.4541650580586163,0.9638960090076631,0.8243725393700787,styrofoam
8.523986297972598,1.8522045403465817,0.5269526863726712,0.35962947528700867,0.5385846677704774,0.12947939271896325,8.523986297972597,0.5269526863726712,3.603277478097904,5.16356544766397,2.6351874872339844,0.3690944881889764,styrofoam
4.199958271010293,0.8179377257192015,0.8040878637307599,0.7491773750108752,0.20312244256584278,0.5613024889008636,4.199958271010292,0.8040878637307598,1.6580463616765582,2.1043561653620264,1.5239148707507695,0.7559055118110236,styrofoam
2.3385440481818467,0.7818756926576353,0.7391005961212617,0.6135305221210288,0.3434685203674646,0.37652249726393705,2.3385440481818467,0.7391005961212617,2.107602485245455,2.806847985924424,1.7171863374584357,0.6218626968503937,styrofoam
5.685333265197781,1.7039538883765268,0.4718286761217966,0.25470799375339936,0.2637493882631464,0.06504717622933005,5.68533326519778,0.4718286761217966,3.3787295375405506,5.008445710440855,2.5045345093481446,0.23941929133858267,styrofoam
13.313410505727264,2.0258582899978306,0.6031144755260532,0.5209995761666066,0.2660824915883826,0.2715846096522948,13.313410505727262,0.6031144755260534,2.9370432143463003,3.997324557589078,2.5635979760110548,0.5334645669291339,styrofoam
0.19107784309318618,0.0877049879099758,0.9651856533726922,0.9421479104538462,0.09267880709291955,0.8876433679073801,0.19107784309318615,0.9651856533726921,0.41566675858632973,0.4877517858640953,0.39396408045631637,0.9429133858267716,styrofoam
2.523150022862545,0.7938946346642692,0.7429279682440626,0.6121643169964635,0.4668236645399116,0.3748290369253544,2.523150022862546,0.7429279682440628,2.2224284882213796,2.974588171432129,1.7220998444117765,0.6208784448818898,styrofoam
3.4289076546903097,0.6410195242265486,0.8475521975582077,0.8042686906603899,0.16012633754997563,0.6468595529765326,3.4289076546903092,0.8475521975582077,1.3549251847895782,1.6805665319755534,1.2706376355010611,0.8074557086614174,styrofoam
0.6656636047647095,0.26894636601773203,0.8994340634613056,0.8338373670782704,0.37053236019670427,0.695296582926325,0.6656636047647095,0.8994340634613056,1.061856949699417,1.3274588801654503,0.8805076130867029,0.8372293307086615,styrofoam
8.466089928273604,1.816410003913758,0.5379111087776705,0.36201413920340497,0.6654621299202923,0.13114279267216056,8.466089928273608,0.5379111087776706,3.773973699365774,5.376166893598292,2.6110949379565276,0.3703863188976378,styrofoam
3.0905885991459487,0.6529072003456508,0.8323709955314578,0.7788182552732993,0.260667288417488,0.6065787946102068,3.0905885991459483,0.8323709955314579,1.4906998811050818,1.891174537962622,1.3460727388475144,0.7835875984251969,styrofoam
3.9189216386245276,1.1817234532906566,0.6306775227572887,0.4579183669262156,0.4805520486642545,0.20979263592421005,3.918921638624527,0.6306775227572887,2.891040669809418,3.999084976752168,2.146771447664108,0.4605068897637795,styrofoam
6.917807331708415,1.9578201773591049,0.41403762323964155,0.17902191781360619,0.2885101698759616,0.0321249443637779,6.917807331708413,0.41403762323964144,3.6995143934193844,5.637799806177927,2.6259851876658615,0.1408095472440945,styrofoam
7.212328143406288,1.447690059442619,0.652029935390404,0.5516725833096443,0.32102220019453653,0.3044202233266424,7.212328143406287,0.652029935390404,2.6592663855028316,3.626797218022899,2.24737804197653,0.5584399606299213,styrofoam
0.9030354388833778,0.3864930307985616,0.8527477667128149,0.7564609304765726,0.32579110562824004,0.5722608754932104,0.9030354388833778,0.8527477667128149,1.38861249708286,1.7751846406160459,1.145483150687321,0.7608267716535433,styrofoam
4.320290581987414,1.2516566869071242,0.6134093062966212,0.40907947602463857,0.6430698312477936,0.167419994613236,4.320290581987415,0.613409306296621,3.2861063545308005,4.581543407886008,2.2168064175272804,0.41270915354330706,styrofoam
3.594807150551802,0.7764290059830119,0.8004273248850632,0.7350276114097366,0.3125909902408773,0.5402909765304795,3.5948071505518016,0.8004273248850632,1.7394032217781783,2.2605974484585287,1.5235574218234738,0.7402805118110236,styrofoam
0.8221019059225619,0.3246485125782752,0.881900158777779,0.801446878801229,0.6764018563663561,0.6423235857571237,0.8221019059225618,0.8819001587777792,1.3547288675939213,1.7073071977779704,0.9895391907982218,0.8031496062992126,styrofoam
11.091023689859885,2.287585637671274,0.41380896309363663,0.1643978762825703,0.8009129880578254,0.02707902770069734,11.09102368985988,0.4138089630936366,4.893566215599613,7.123001060785283,2.884388906907881,0.16043307086614172,styrofoam
5.512497868745737,1.2269044694339388,0.6805571625668446,0.5655121392324837,0.45051550164723264,0.3198401947658696,5.512497868745738,0.6805571625668447,2.6250636977401047,3.6149687454068187,2.091482500807784,0.5684670275590551,styrofoam
2.1478903973432946,0.7208308791617584,0.7583444283949321,0.6279118822341039,0.526772936473554,0.39432334904865296,2.147890397343295,0.7583444283949322,2.1566051276649567,2.85185226425342,1.6403509642195424,0.6318282480314961,styrofoam
3.950672846658194,1.343179162920826,0.549066615478053,0.3143263822563862,0.3695511690264544,0.09891418040999762,3.9506728466581933,0.549066615478053,3.172903819441243,4.5633017424388145,2.2690258366153313,0.29945866141732286,styrofoam
6.699169706933166,1.3740243457049417,0.6667011433719598,0.5655288133229455,0.38748802572874413,0.31988210981597526,6.699169706933164,0.6667011433719598,2.6385007493048462,3.6106007292238527,2.1786527793608625,0.5708661417322834,styrofoam
